%%MatrixMarket matrix coordinate real symmetric
%-------------------------------------------------------------------------------
% UF Sparse Matrix Collection, Tim Davis
% http://www.cise.ufl.edu/research/sparse/matrices/AG-Monien/3elt
% name: AG-Monien/3elt
% [2D finite element problem]
% id: 2409
% date: 1998
% author: R. Diekmann, R. Preis
% ed: R. Diekmann, R. Preis
% fields: name title A id date author ed kind notes aux
% aux: coord
% kind: 2D/3D problem
%-------------------------------------------------------------------------------
% notes:
% AG-Monien Graph Collection, Ralf Diekmann and Robert Preis                     
% http://www2.cs.uni-paderborn.de/fachbereich/AG/monien/RESEARCH/PART/graphs.html
%                                                                                
% A collection of test graphs from various sources.  Many of the graphs          
% include XY or XYZ coordinates.  This set also includes some graphs from        
% the Harwell-Boeing collection, the NASA matrices, and some random matrices     
% which are not included here in the AG-Monien/ group of the UF Collection.      
% In addition, two graphs already appear in other groups:                        
%                                                                                
%    AG-Monien/big : same as Nasa/barth5, Pothen/barth5 (not included here)      
%    AG-Monien/cage_3_11 : same as Pajek/GD98_c (included here)                  
%                                                                                
% The AG-Monien/GRID subset is not included.  It contains square grids that      
% are already well-represented in the UF Collection.                             
%                                                                                
% Six of the problem sets are included as sequences, each sequence being         
% a single problem instance in the UF Collection:                                
%                                                                                
%    bfly:  10 butterfly graphs 3..12                                            
%    cage:  45 cage graphs 3..12                                                 
%    cca:   10 cube-connected cycle graphs, no wrap                              
%    ccc:   10 cube-connected cycle graphs, with wrap                            
%    debr:  18 De Bruijn graphs                                                  
%    se:    13 shuffle-exchange graphs                                           
%                                                                                
% Problem.aux.G{:} are the graphs in these 6 sequences.  Problem.aux.Gname{:}    
% are the original names of each graph, and Problemm.aux.Gcoord{:} are the       
% xy or xyz coordinates of each node, if present.                                
%-------------------------------------------------------------------------------
4720 4720 13722
2 1 -0.6155278176213874
4 1 0.4250312814722128
5 1 0.5762199774163030
3 2 -0.4429151280251472
5 2 -0.4474318674275949
7 2 0.0283516953032015
6 3 0.3849909970397045
7 3 -0.5497299111911373
9 3 0.3871883297219765
5 4 0.5640125736259041
8 4 -0.0865199743644520
10 4 0.6968291268654438
15 4 -0.5633411664174321
7 5 0.1927243873409223
10 5 -0.7374797814874722
11 5 0.2450941496017334
9 6 -0.8970305490279855
12 6 0.9671010467848751
14 6 -0.5022431104464857
9 7 0.2275154881435590
11 7 0.0016785180211798
13 7 -0.9970091860713522
15 8 -0.6140629291665395
18 8 0.0009460737937559
23 8 0.0903653065584278
13 9 -0.6580095828119754
14 9 0.0574663533433026
16 9 0.4094668416394542
11 10 -0.8692587054048280
15 10 0.8176213873714409
17 10 -0.3430585650196845
26 10 0.0826746421704765
13 11 -0.9564195684682760
17 11 -0.7615283669545579
19 11 -0.9553209021271402
14 12 0.5812860499893184
22 12 -0.2779931028168584
29 12 0.2000488296151617
16 13 0.6114383373516037
19 13 0.2031617175817133
20 13 0.8633381145664847
16 14 -0.1625110629596851
21 14 -0.7314981536301768
22 14 -0.7383953367717521
23 15 -0.6163212988677633
26 15 0.8332468642231514
34 15 -0.3229773857844783
20 16 0.6495864741966002
21 16 0.9768669698171941
24 16 -0.0099795525986511
19 17 0.7772148808252204
26 17 0.5005951109347819
30 17 -0.6203497421185949
31 17 0.6836451307718132
23 18 -0.3188879055146947
183 18 0.7603686635944700
327 18 -0.0917691579943235
20 19 0.5064546647541734
25 19 -0.0084536271248512
27 19 0.4812463759269998
30 19 0.8245796075319682
24 20 -0.5848261970885342
25 20 0.6085695974608600
28 20 -0.3487350077822199
22 21 -0.9010589922788171
24 21 0.6952421643726920
33 21 0.0873744926297799
39 21 0.3713797418134099
29 22 0.1290627765739922
39 22 0.0533158360545671
46 22 0.6093630787072359
34 23 -0.8076723532822657
183 23 -0.0219428083132420
272 23 -0.8477126377147740
28 24 0.6284676656392101
33 24 -0.5750602740562151
37 24 -0.3045442060609760
27 25 0.8992278817102572
28 25 0.2566911832026124
32 25 -0.7656178472243416
31 26 0.2822656941434980
34 26 0.8000427259132663
50 26 0.4493850520340588
64 26 0.3336588641010774
30 27 -0.1372417371135594
32 27 -0.3063753166295358
35 27 0.0547196874904630
38 27 -0.9145481734672078
32 28 -0.3733939634388257
36 28 0.1763054292428359
37 28 -0.2117679372539445
46 29 0.8284859767448958
148 29 0.1020233771782586
282 29 0.0311593981749931
31 30 -0.8037659840693381
38 30 -0.7626880703146458
41 30 0.3245643482772302
43 30 0.9733878597369305
43 31 -0.3305459761345256
50 31 -0.4687337870418409
69 31 -0.5382549516281625
35 32 0.0242622150334177
36 32 -0.4294259468367565
40 32 -0.6577654347361674
37 33 -0.5416119876705221
39 33 -0.1727652821436201
48 33 0.5368511001922667
57 33 0.0563676870021668
64 34 0.2631000701925719
272 34 -0.7828302865688039
2142 34 -0.9785149693288979
38 35 0.4395580919827875
40 35 0.1995605334635457
42 35 0.3566087832270273
37 36 0.1358989226966154
40 36 -0.6380504776146734
44 36 -0.9548326059755241
45 36 -0.2497940000610370
44 37 -0.1452375865962706
48 37 -0.5681630909146398
52 37 0.3788262581255530
41 38 -0.5483260597552415
42 38 0.6472670674764245
47 38 0.3520920438245796
46 39 0.7606128116702779
57 39 -0.2264778588213752
157 39 0.5963011566515091
172 39 -0.1879024628437147
42 40 0.3067415387432477
45 40 -0.1862544633320109
49 40 -0.9310892056031983
51 40 0.7275307473982970
43 41 0.2205572679830317
47 41 -0.8885464033936583
59 41 0.9996337778862880
66 41 0.6396984771263772
47 42 -0.1561021759697256
51 42 0.7437665944395275
53 42 0.8495437482833339
66 43 0.0879848628192998
69 43 0.7900936918240913
100 43 -0.8235419782097843
45 44 0.3039948728904081
52 44 -0.2326425977355266
54 44 0.7213660084841456
58 44 -0.8184148686178168
49 45 0.7708670308542132
54 45 -0.7166051210058901
55 45 0.3335978270821254
172 46 -0.8668172246467483
282 46 0.7419965208899197
1791 46 -0.6824243903927731
53 47 0.1106295968504898
59 47 0.9952391125217444
62 47 -0.9192480239265114
52 48 0.0154118472853786
57 48 0.4101382488479262
73 48 0.3126621295815912
84 48 0.2974639118625446
51 49 -0.5908078249458296
55 49 -0.5555894650105289
56 49 0.5195776238288523
64 50 0.8760338145084994
69 50 0.6891384624774926
143 50 0.7184362315744499
151 50 0.8759117404705954
53 51 0.7133091219824823
56 51 0.1338847010711997
60 51 0.4866786706137272
58 52 0.3456221198156681
73 52 0.7350383007293924
76 52 0.5145115512558367
60 53 0.7926572466200750
62 53 0.7286904507583849
65 53 0.7491988891262551
55 54 -0.2171391949217201
58 54 0.6528214362010560
61 54 -0.6404309213538011
67 54 0.6008178960539567
56 55 -0.1418805505539109
61 55 0.9473250526444288
63 55 0.6849879451887571
60 56 0.6895046845912045
63 56 -0.6767479476302377
68 56 -0.4195989867854854
84 57 -0.9680166020691550
157 57 0.9135105441450240
173 57 0.8444166386913663
67 58 0.4728843043305766
76 58 -0.1186254463332010
77 58 0.1011078218939787
62 59 -0.8751182592242195
66 59 0.9491561632129886
83 59 -0.0434888760032960
93 59 0.9935911130100405
65 60 0.2076174199652090
68 60 -0.9191259498886074
72 60 -0.5588854640339366
63 61 0.8410596026490067
67 61 -0.0632648701437422
71 61 -0.4488357188634907
74 61 0.6392101809747612
65 62 0.6743064668721579
79 62 0.3930478835413678
83 62 -0.4006775109103672
68 63 0.3879207739494004
70 63 -0.6854152043214210
71 63 0.1134372997222817
143 64 -0.3883480330820642
2142 64 0.5375835444196906
4561 64 -0.8152409436323130
72 65 0.9088717307046723
79 65 -0.0819421979430525
80 65 -0.1898556474501786
93 66 -0.0170598467970824
100 66 -0.9081392864772484
128 66 0.3589281899472030
74 67 -0.6504409924619281
77 67 -0.7173986022522660
81 67 -0.0726035340433974
70 68 0.1838129825739312
72 68 -0.7247840815454574
75 68 0.1208838160344248
100 69 -0.8821375164036989
151 69 0.8446607867671743
216 69 0.5527817621387372
71 70 0.6369518112735375
75 70 0.1369365520187995
78 70 -0.7540818506424146
74 71 -0.5068819238868374
78 71 -0.1752677999206519
82 71 -0.7774590289010285
75 72 0.0144962920010987
80 72 -0.8066957609790337
87 72 0.4607989745780816
76 73 0.8432569353312784
84 73 0.3513595995971557
107 73 -0.7692190313425092
110 73 -0.7297280800805689
81 74 -0.5509506515701773
82 74 0.0280465102084415
85 74 -0.0751060518204291
78 75 -0.6055787835322123
86 75 0.3209021271401105
87 75 0.0899990844447158
77 76 0.4761803033539842
103 76 -0.7795342875453963
107 76 -0.6709494308297983
81 77 0.8294625690481277
91 77 -0.7019562364574115
103 77 0.6379894405957214
82 78 0.4152653584398938
86 78 0.5902584917752618
88 78 -0.1479232154301584
80 79 0.7830744346446119
83 79 0.6093020416882839
97 79 -0.0324411755729850
101 79 0.2991729483932004
87 80 0.3339030121768853
94 80 -0.6063722647785882
97 80 0.9640491958372752
85 81 0.2805566576128422
90 81 0.4187444685201576
91 81 0.2281258583330790
85 82 -0.3338419751579332
88 82 -0.8606524857325968
89 82 -0.7996154667806025
93 83 -0.9529404583880123
101 83 0.0022278511917477
126 83 0.8966643269142736
110 84 0.1987670522171696
173 84 -0.4578691976683859
200 84 -0.8554033021027253
89 85 0.2936796166875211
90 85 -0.5861690115054781
95 85 0.0419629505294961
87 86 0.1199682607501449
88 86 -0.7872859889522996
96 86 -0.6873073519089328
98 86 -0.1971800897244178
94 87 0.1878414258247627
98 87 -0.2098757896664327
99 87 0.7416302987762078
89 88 -0.4786828211310160
92 88 0.5521103549302653
96 88 -0.4676961577196570
92 89 0.8265327921384320
95 89 -0.1172215948973052
102 89 -0.0333567308572650
91 90 0.7488937040314951
95 90 -0.0751060518204291
105 90 0.9567247535630359
111 90 -0.2018189031647695
103 91 -0.3856624042481765
111 91 -0.3099765007477034
120 91 0.2527237769707327
96 92 -0.8917203283791619
102 92 -0.8288521988586077
104 92 -0.6882839442121647
126 93 0.2494277779473251
128 93 -0.6819360942411572
160 93 -0.4130069887386700
97 94 -0.0049745170445875
99 94 -0.7923520615253151
112 94 -0.9833979308450576
115 94 -0.0217596972563860
102 95 0.7396160771507920
105 95 0.0824304940946685
108 95 0.4771568956572161
98 96 -0.8878749961851863
104 96 -0.5171971800897244
106 96 -0.6562395092623676
101 97 0.4423657948545794
115 97 -0.6992095706045717
123 97 0.6682638019959106
99 98 0.5216528824732201
106 98 0.7416913357951598
109 98 0.7988830225531784
109 99 -0.6976226081118198
112 99 0.2847071749015777
114 99 -0.6965849787896359
128 100 -0.9823603015228736
216 100 0.5626697592089602
1759 100 -0.1323587755973998
123 101 -0.8761558885464034
126 101 -0.1319925534836879
136 101 -0.9821161534470656
104 102 -0.3417767876216925
108 102 -0.2446058534501175
113 102 -0.4549394207586901
107 103 0.5256202887050996
120 103 -0.2427747428815576
137 103 0.8775597399822992
147 103 0.0660725730155338
106 104 0.8665730765709403
113 104 0.3230994598223822
116 104 0.5117038483840448
108 105 0.8757286294137394
111 105 0.1807611316263313
118 105 0.5148777733695487
109 106 -0.5566881313516647
116 106 -0.1708731345561083
117 106 -0.7335734122745445
110 107 -0.1550645466475418
141 107 0.4138004699850459
147 107 -0.1323587755973998
113 108 0.8052308725241859
118 108 0.7543870357371747
122 108 -0.3561815240943632
114 109 0.6971343119602038
117 109 -0.4253975035859249
119 109 0.2235480819116795
141 110 -0.7482222968230232
200 110 -0.2163457136753441
232 110 0.7125766777550584
118 111 -0.7695852534562212
120 111 0.1290627765739922
130 111 -0.0223090304269540
114 112 0.0943327127903073
115 112 -0.1310159611804560
121 112 -0.1654408398693807
124 112 0.0799279763176366
116 113 -0.1144749290444654
122 113 0.9401837214270454
125 113 -0.9282815027314066
119 114 -0.3395184179204688
121 114 -0.6666158024842066
123 115 -0.1717276528214362
124 115 -0.6900540177617724
133 115 0.4454176458021790
117 116 -0.1411481063264870
125 116 -0.5253761406292916
127 116 -0.8873256630146183
119 117 -0.4189275795770134
127 117 0.5117648854029970
129 117 0.2619403668324840
122 118 -0.2645039216284677
130 118 -0.9091769157994324
132 118 0.8521073030793176
121 119 -0.3794366283150731
129 119 -0.4440748313852352
131 119 0.8350169377727592
130 120 -0.6807153538621173
137 120 -0.8293404950102237
154 120 -0.1018402661214026
124 121 -0.7123935666982024
131 121 0.1524399548326061
134 121 0.2116458632160405
125 122 -0.1857661671803950
132 122 -0.5581530198065127
135 122 0.9237037263100070
133 123 -0.6282845545823542
136 123 0.3852351451155125
145 123 0.1570787682729575
133 124 -0.2525406659138768
134 124 -0.7695852534562212
142 124 0.1042817468794823
127 125 0.2594988860744041
135 125 0.2281258583330790
140 125 -0.2743308816797387
136 126 -0.0957976012451552
160 126 -0.2905667287209692
174 126 -0.7919858394116032
209 126 -0.8405102694784387
129 127 -0.6080202642902921
138 127 -0.8522904141361736
140 127 -0.6206549272133549
160 128 0.6128421887874995
1571 128 0.8532670064394055
1759 128 0.1329691457869198
131 129 -0.1788689840388196
138 129 0.5835444196905424
139 129 0.5879390850550859
132 130 -0.6170537430951872
146 130 0.5253151036103396
154 130 -0.3403118991668447
134 131 0.1415143284401990
139 131 -0.6672261726737266
144 131 -0.0274361400189215
135 132 0.0402539139988403
146 132 0.9924924466689047
153 132 0.3215735343485824
142 133 -0.1772209845271157
145 133 -0.2841578417310099
164 133 -0.7404705954161199
142 134 0.7203894161809137
144 134 -0.2201910458693197
150 134 0.1225318155461288
140 135 -0.0086977752006592
153 135 0.3146153141880550
156 135 0.6957304605243080
145 136 -0.9196752830591753
174 136 -0.4004943998535112
177 136 -0.7477950376903593
147 137 0.9749137852107304
154 137 -0.1703238013855404
179 137 0.0005188146610919
194 137 -0.1286355174413282
139 138 0.3423871578112125
140 138 -0.0218817712942900
152 138 -0.9747306741538744
155 138 -0.2809839167455062
144 139 0.0370799890133366
149 139 -0.8309274575029756
152 139 0.6620990630817591
155 140 -0.9262062440870388
156 140 -0.5062105166783655
159 140 -0.7132480849635303
147 141 -0.3068025757621998
227 141 -0.7150791955320902
232 141 0.5759147923215431
150 142 0.0077211828974273
162 142 0.2891628772850734
164 142 -0.7596972563859981
151 143 -0.5788445692312387
1968 143 -0.4868617816705832
4561 143 -0.8779259620960113
4595 143 0.2762230292672505
149 144 0.9636829737235633
150 144 -0.8262886440626240
158 144 0.5613269447920164
164 145 0.8400830103457748
177 145 0.1936399426252022
186 145 0.0195623645741143
153 146 0.5135959959715568
154 146 -0.7792901394695884
165 146 -0.7815485091708121
167 146 -0.1920529801324503
194 147 0.4698934904019287
227 147 -0.3432416760765404
301 147 0.1865596484267709
282 148 0.5009002960295419
4646 148 0.3224890896328623
152 149 0.1367534409619435
158 149 -0.8629108554338206
161 149 0.9657582323679312
158 150 -0.4866786706137273
162 150 -0.7969908749656667
166 150 0.8387401959288308
216 151 0.7106845301675466
1968 151 -0.9227881710257271
4363 151 0.0721762749107333
155 152 -0.3223670155949584
161 152 -0.5319071016571550
163 152 0.1423688467055269
156 153 -0.6158330027161474
165 153 0.6606341746269113
168 153 0.4379100924710837
167 154 -0.5501571703238014
179 154 0.8933683278908657
190 154 -0.4076967680898465
159 155 0.0035096285897396
163 155 -0.5444807275612660
169 155 -0.5874507889034699
159 156 0.4920499282815027
168 156 -0.2665791802728354
171 156 -0.4234443189794610
172 157 -0.6755882442701499
173 157 -0.6896267586291085
4437 157 -0.5204321420941801
4544 157 0.1445051423688466
161 158 0.9712515640736106
166 158 0.0099185155796990
170 158 -0.6132084109012116
169 159 -0.3718680379650258
171 159 -0.7638477736747338
176 159 0.0709555345316935
209 160 -0.3757133701590014
1466 160 0.6889553514206366
1571 160 -0.3714407788323618
163 161 -0.5138401440473648
170 161 -0.3474532303842280
175 161 -0.3700979644154180
164 162 0.1852778710287790
166 162 0.3057039094210638
178 162 -0.1621448408459731
182 162 0.8025452436902982
169 163 0.5017548142948698
175 163 0.7955870235297708
180 163 -0.7731254005554369
182 164 0.5323953978087710
186 164 0.2032227546006653
201 164 -0.7282021546067690
167 165 0.2941679128391370
168 165 0.1275978881191442
184 165 0.1711783196508683
188 165 -0.3267006439405500
170 166 0.4742881557664724
178 166 0.5312356944486831
181 166 0.8353221228675192
188 167 -0.0653401287881100
190 167 -0.7077547532578509
195 167 0.1809442426831873
171 168 0.8445997497482223
184 168 -0.7768486587115085
189 168 0.9038056581316569
176 169 0.6380504776146734
180 169 0.4299142429883724
187 169 -0.8992889187292092
175 170 0.8581499679555651
181 170 -0.4511551255836664
185 170 0.7707449568163092
176 171 0.6750389110995818
189 171 0.8961149937437056
192 171 -0.4997405926694540
1791 172 -0.3224890896328624
4544 172 0.8004089480269783
4620 172 0.5960570085757011
200 173 0.3326212347788935
3765 173 0.9039277321695609
4437 173 -0.6071047090060122
177 174 -0.3204748680074465
209 174 -0.5283059175389874
284 174 -0.6004516739402448
1290 174 0.9206518753624073
180 175 -0.2098147526474807
185 175 -0.1565294351023896
191 175 -0.1823480941190833
187 176 0.1325418866542558
192 176 -0.4429761650440992
193 176 -0.0673543504135258
186 177 0.5878170110171819
239 177 -0.9120456556901761
284 177 -0.2437513351847895
181 178 -0.4514603106784265
182 178 0.8690145573290200
196 178 -0.4506057924130985
198 178 0.3825495162816248
190 179 -0.1395001068147832
194 179 0.6930448316904203
226 179 -0.1987060151982177
256 179 0.4431592761009553
187 180 -0.7345500045777764
191 180 -0.3874935148167363
197 180 -0.0434888760032960
185 181 0.2875148777733696
196 181 -0.3502609332560198
199 181 0.1645863216040528
198 182 0.8145695364238410
201 182 -0.7159337137974182
210 182 0.6081423383281961
272 183 -0.5357524338511307
327 183 0.3320108645893733
4657 183 0.6576433606982635
4668 183 0.1824091311380351
188 184 -0.7611621448408460
189 184 0.7697073274941253
203 184 0.2987456892605365
208 184 -0.3180944242683187
191 185 -0.3839533677175206
199 185 0.5772576067384869
202 185 -0.6407971434675130
201 186 -0.8514358958708457
231 186 0.9789422284615619
239 186 0.0793176061281167
193 187 -0.5555894650105289
197 187 -0.9710074159978027
205 187 -0.8007141331217383
195 188 -0.9756462294381543
208 188 0.2160405285805842
219 188 0.6163212988677633
192 189 0.5632190923795282
203 189 -0.9403057954649495
206 189 0.2176885280922880
195 190 0.8235419782097841
221 190 -0.3007599108859523
226 190 -0.8055970946378979
197 191 0.7354655598620563
202 191 -0.1478621784112064
204 191 0.8246406445509202
193 192 -0.6865749076815089
206 192 -0.4939420758690145
207 192 -0.6829126865443892
205 193 -0.3811456648457290
207 193 -0.1951658680990020
212 193 0.0854213080233162
256 194 -0.6084475234229560
301 194 0.0398876918851283
1246 194 0.3624073000274666
219 195 -0.3105258339182714
221 195 0.5340433973204748
198 196 -0.6068605609302042
199 196 0.0273751029999696
213 196 -0.6792504654072695
214 196 0.3591723380230110
204 197 -0.0318918424024170
205 197 -0.4697103793450728
211 197 0.9918820764793848
210 198 -0.7834406567583239
213 198 0.5529038361766412
217 198 -0.0038758507034516
202 199 -0.1401715140232551
214 199 -0.9613025299844355
215 199 0.1404156620990631
232 200 -0.9242530594805750
2122 200 0.0826746421704765
3765 200 -0.9795525986510819
210 201 -0.8610797448652607
230 201 0.5649891659291360
231 201 0.2111575670644246
204 202 0.6940214239936522
215 202 0.3984801782280953
220 202 0.5750602740562152
206 203 0.9284646137882626
208 203 -0.0400097659230323
224 203 -0.6337168492690817
236 203 0.3157139805291909
211 204 0.9498275704214607
220 204 0.6387829218420973
222 204 -0.3160802026429029
211 205 0.5547959837641530
212 205 -0.1054414502395703
218 205 -0.8967253639332255
223 205 -0.4620197149571215
207 206 -0.1844233527634510
224 206 -0.0559404278695028
228 206 0.5570543534653767
212 207 -0.9226660969878231
228 207 -0.6250495925778985
229 207 -0.9035615100558488
219 208 0.5180516983550523
236 208 0.2093874935148168
250 208 -0.8746910000915555
1290 209 -0.1679433576464125
1466 209 0.0735801263466291
1588 209 -0.9127170628986481
217 210 -0.6384166997283853
230 210 0.0014343699453718
240 210 0.4661702322458572
218 211 0.6019165623950926
222 211 0.5570543534653767
225 211 -0.2517471846675008
223 212 -0.4258247627185888
229 212 -0.8107242042298655
233 212 0.1895504623554185
214 213 -0.7197180089724418
217 213 -0.1502426221503341
237 213 -0.7325357829523607
243 213 0.6815698721274452
215 214 -0.7000030518509476
237 214 0.2759178441724905
244 214 -0.3850520340586566
220 215 -0.4847254860072634
234 215 0.9085665456099123
244 215 -0.0940275276955473
1759 216 -0.9976805932798242
4363 216 -0.4132511368144780
4562 216 0.7941221350749230
240 217 -0.4526200140385144
243 217 -0.6088137455366680
223 218 0.8600421155430769
225 218 0.5183568834498122
235 218 -0.8474684896389660
221 219 0.0112002929776909
250 219 -0.6148564104129155
259 219 -0.2867213965269936
222 220 -0.5207983642078922
234 220 0.6290169988097782
242 220 0.7420575579088717
226 221 -0.0000915555284280
259 221 -0.4170354319895017
289 221 -0.6788842432935576
225 222 -0.0282296212652974
238 222 -0.5569933164464247
242 222 0.7042146061586352
233 223 -0.9371929074983978
235 223 -0.9401837214270455
241 223 0.3530075991088595
228 224 0.1119724112674336
236 224 0.4460890530106509
249 224 0.0317697683645131
261 224 0.2479628894924772
235 225 -0.5323343607898190
238 225 0.8392895290993987
245 225 0.7249061555833614
256 226 0.7886288033692435
289 226 -0.7294228949858088
1271 226 -0.6996978667561876
232 227 -0.7015289773247475
301 227 0.4982757042146062
1815 227 -0.0520340586565752
1897 227 -0.4435254982146672
229 228 0.5444196905423140
249 228 0.0804162724692525
253 228 -0.8481398968474380
233 229 0.3630176702169865
246 229 0.0612506485183264
253 229 0.1465193639942626
231 230 -0.1736198004089480
240 230 -0.4468825342570268
278 230 -0.6458632160405287
331 230 0.1664784691915646
239 231 0.6057618945890684
331 231 -0.9080172124393444
1018 231 -0.0769981994079409
1897 232 0.4541459395123142
2122 232 -0.8921475875118259
241 233 -0.5527817621387372
246 233 -0.5987426374095890
247 233 0.0006408886989959
242 234 -0.3154698324533830
244 234 0.5880001220740378
254 234 -0.1918088320566423
257 234 -0.0321359904782250
241 235 0.1910763878292183
245 235 -0.0743125705740532
248 235 0.9770500808740501
250 236 -0.3456831568346201
261 236 -0.6616718039490952
290 236 0.5085909604174932
243 237 -0.7792291024506364
244 237 0.7465742973113194
267 237 -0.8111514633625294
269 237 -0.2172002319406721
242 238 0.2998443556016723
245 238 0.6678365428632465
251 238 0.3603320413830988
252 238 0.2322153386028627
284 239 0.7517624439222388
1018 239 0.8373973815118869
1383 239 0.4983977782525102
243 240 0.2096926786095767
275 240 0.6477553636280404
278 240 0.6519669179357279
247 241 -0.4181951353495895
248 241 0.2724387340922270
255 241 -0.1629993591113010
251 242 -0.9973143711661122
254 242 0.6216925565355389
260 242 -0.6666768395031586
269 243 0.7416302987762078
275 243 0.1397442548905912
257 244 -0.6820581682790612
267 244 -0.0581377605517747
271 244 -0.2346568193609424
248 245 -0.3033845027008881
252 245 -0.7643360698263497
258 245 -0.9944456312753686
247 246 0.3776665547654652
253 246 -0.3121127964110233
264 246 0.0627765739921262
266 246 -0.7337565233314005
255 247 -0.0638142033143101
266 247 0.2913602099673451
268 247 -0.4872280037842952
255 248 -0.1579943235572374
258 248 -0.6897488326670125
262 248 -0.7717215491195411
253 249 0.4345530564287241
261 249 -0.8515579699087497
280 249 -0.6328012939848018
306 249 0.5538804284798731
259 250 -0.3089388714255196
290 250 0.5113986632892848
355 250 -0.6150395214697715
252 251 -0.3302407910397657
260 251 0.3711355937376020
263 251 -0.2172002319406721
265 251 -0.5475325785088656
258 252 0.3725394451734978
265 252 -0.1055024872585223
270 252 -0.7256996368297373
264 253 -0.0787072359385967
280 253 0.7492599261452071
285 253 -0.4247260963774530
257 254 -0.6813257240516373
260 254 -0.0299996948149053
274 254 -0.2664571062349315
283 254 0.2035279396954253
262 255 -0.2272103030487991
268 255 0.3451948606830042
273 255 -0.8661458174382763
1246 256 -0.7900326548051393
1271 256 0.7750785851619006
1718 256 0.3396404919583726
271 257 0.9476912747581407
283 257 -0.0250556962797936
296 257 -0.9313333536790063
262 258 0.0722983489486373
270 258 0.7722098452711570
276 258 0.8438062685018464
289 259 -0.7958311716055788
355 259 0.1308938871425520
1036 259 -0.8734092226935637
263 260 0.4127018036439101
274 260 -0.0668050172429578
277 260 -0.3594164860988189
290 261 -0.5042573320719016
306 261 0.6459242530594806
376 261 -0.8939786980803858
273 262 0.8208563493758965
276 262 0.9097262489700002
286 262 0.3878597369304484
265 263 -0.6140629291665395
277 263 -0.9069795831171605
279 263 -0.1293069246498001
266 264 0.8319650868251594
285 264 0.0920133060701316
295 264 0.8016296884060183
270 265 -0.5596179082613606
279 265 -0.4908902249214149
281 265 -0.5163426618243965
268 266 -0.3893856624042482
291 266 0.2994781334879604
295 266 0.3586840418713950
269 267 0.7991271706289864
271 267 -0.3612475966673787
314 267 -0.4070863979003265
325 267 0.4429761650440993
273 268 0.3597216711935789
291 268 0.3951231421857357
294 268 0.3722342600787378
275 269 0.8698080385753959
325 269 -0.9459212012085330
4694 269 -0.4216132084109012
276 270 -0.5513779107028413
281 270 0.4840540787987915
292 270 -0.4871669667653432
293 270 0.8017517624439223
296 271 0.4683675649281289
314 271 -0.1087984862819300
323 271 0.2875759147923216
2142 272 0.3057039094210638
4644 272 0.0229804376354259
4657 272 0.3755912961210974
286 273 -0.6536759544663839
294 273 -0.2777489547410504
299 273 -0.3918881801812799
277 274 -0.7241126743369855
283 274 0.1977904599139377
287 274 0.9520859401226844
303 274 -0.7584765160069582
278 275 0.3795587023529772
412 275 0.9570909756767481
4694 275 0.2174443800164800
286 276 -0.4457228308969390
293 276 0.8998382518997772
298 276 -0.3349406414990692
279 277 -0.6465346232490006
287 277 0.1670278023621325
288 277 -0.4029969176305429
331 278 0.1746574297311319
412 278 -0.5998413037507249
1062 278 -0.8364207892086550
281 279 -0.3931699575792719
288 279 -0.0845057527390363
297 279 0.5579088717307046
285 280 -0.5244605853450117
306 280 0.5384990997039705
332 280 -0.1496322519608142
410 280 -0.4318063905758843
292 281 0.9884029663991212
297 281 -0.5958128604998931
300 281 -0.0647297585985901
1791 282 0.5834223456526384
4632 282 0.1835077974791710
4646 282 0.9442121646778772
296 283 0.3962828455458236
303 283 0.5867793816949980
315 283 0.1279641102328561
338 283 0.9077120273445844
1290 284 0.1346781823175756
1383 284 -0.5742667928098392
1749 284 0.6237678151799066
295 285 0.8544267097994933
332 285 0.5743278298287913
333 285 -0.4784386730552079
298 286 -0.6696066164128545
299 286 0.0371410260322886
313 286 0.2621234778893400
288 287 -0.6836451307718131
302 287 -0.3276161992248299
303 287 0.9298684652241584
297 288 0.5354472487563708
302 288 -0.4783165990173039
304 288 0.3441572313608203
1036 289 -0.0383007293923765
1271 289 -0.4318674275948363
1484 289 0.2300180059205907
355 290 0.2254402294991913
376 290 0.0217596972563860
943 290 -0.8917203283791619
294 291 -0.0478835413678396
295 291 -0.4807580797753838
320 291 0.2949003570665609
347 291 -0.7804498428296762
293 292 0.6427503280739768
300 292 0.9250465407269508
305 292 -0.0074770348216193
307 292 -0.6610614337595752
298 293 -0.2231818597979675
307 293 -0.3408001953184606
308 293 -0.4597003082369457
312 293 0.9636829737235633
299 294 -0.4604327524643697
320 294 0.1363872188482314
321 294 -0.2143314920499283
333 295 0.2793359172338024
347 295 0.1914426099429305
323 296 0.1225318155461288
338 296 0.7867976928006837
361 296 0.0419019135105441
300 297 -0.3276161992248299
304 297 0.1740470595416119
309 297 0.7465132602923674
308 298 -0.9735099337748344
313 298 0.5061494796594135
317 298 -0.8259834589678641
313 299 0.6534928434095280
321 299 0.3543504135258033
328 299 0.0678426465651418
305 300 -0.2212286751915037
309 300 -0.8078554643391217
311 300 -0.9881588183233131
1246 301 -0.7217932676168096
1813 301 0.5868404187139500
1815 301 -0.5144505142368847
303 302 -0.1265602587969603
304 302 -0.2150639362773522
310 302 0.8436841944639424
316 302 0.2320322275460067
310 303 0.5402081362346263
315 303 0.6954252754295480
322 303 0.4934537797173986
309 304 0.7992492446668904
316 304 0.3082674642170475
319 304 0.9229102450636311
307 305 -0.6088137455366680
311 305 0.8379467146824549
318 305 -0.4216742454298532
376 306 0.2081057161168249
410 306 0.4877162999359110
901 306 -0.0227362895596179
312 307 -0.9813837092196417
318 307 0.8792077394940032
324 307 0.7994323557237464
312 308 0.1648304696798608
317 308 0.7948545793023469
329 308 -0.5873897518845179
335 308 0.9761345255897702
311 309 0.2140263069551682
319 309 -0.8211615344706564
326 309 -0.1428571428571429
337 309 -0.7213660084841456
316 310 -0.8795129245887631
322 310 0.8486281929990540
334 310 0.1837519455549792
318 311 0.7795342875453963
326 311 -0.2889187292092654
330 311 0.1921750541703544
324 312 -0.3762627033295693
329 312 -0.4017761772515031
336 312 -0.8134098330637531
317 313 -0.0719321268349253
328 313 0.0577105014191106
342 313 0.9846797082430494
345 313 0.1224707785271768
323 314 0.3545945616016113
325 314 -0.4824060792870876
766 314 -0.9374370555742058
853 314 0.4882656331064790
322 315 -0.4597003082369457
338 315 0.8649250770592365
353 315 -0.9544053468428602
379 315 0.2497329630420850
319 316 -0.2311166722617267
334 316 -0.2933744315927610
341 316 -0.2615741447187719
335 317 -0.8851893673512986
342 317 0.5499740592669453
343 317 0.6127201147495955
324 318 -0.8644367809076204
330 318 0.9875484481337931
339 318 -0.4910122989593189
337 319 -0.3040559099093600
340 319 0.9307840205084383
341 319 -0.3098544267097995
321 320 -0.5314188055055391
347 320 0.6183965575121311
351 320 0.7482222968230232
400 320 -0.4811243018890957
328 321 -0.9663075655384991
351 321 0.0854823450422681
366 321 -0.0902432325205237
334 322 -0.8072450941496018
353 322 0.9934080019531846
354 322 -0.1083712271492661
361 323 -0.4507278664510025
766 323 0.7604907376323740
837 323 -0.1489608447523423
336 324 -0.4218573564867092
339 324 0.8873867000335705
344 324 0.0261543626209295
853 325 0.7965025788140507
998 325 0.7678762169255653
4694 325 0.4783776360362559
330 326 0.0577715384380626
337 326 -0.5681630909146398
348 326 -0.7626270332956938
350 326 0.2434461500900296
4668 327 0.3393353068636127
4678 327 0.5638294625690481
345 328 -0.2094485305337688
366 328 -0.8998382518997772
371 328 -0.8693197424237800
335 329 -0.6254768517105624
336 329 -0.0050355540635395
346 329 0.0029602954191716
352 329 -0.4031800286873989
339 330 -0.7155674916837061
348 330 -0.1557359538560137
359 330 -0.7938169499801629
1018 331 -0.7312540055543687
1062 331 -0.1814325388348033
1482 331 -0.5911130100405897
333 332 -0.4379711294900357
410 332 -0.6006347849971008
744 332 0.7894222846156194
911 332 -0.4625080111087374
347 333 0.6664326914273506
744 333 -0.2237922299874874
786 333 0.1087374492629780
341 334 -0.3285927915280618
354 334 -0.3352458265938292
363 334 -0.4463332010864589
343 335 -0.4592120120853298
352 335 -0.1645863216040528
358 335 -0.4694051942503128
344 336 -0.3324381237220374
346 336 -0.2907498397778252
349 336 0.8663899655140843
340 337 0.6295663319803462
350 337 -0.6066164128543963
357 337 0.6708883938108463
361 338 -0.0573442793053988
379 338 0.3801690725424971
527 338 0.6129032258064515
672 338 -0.6321909237952819
695 338 -0.5227515488143559
344 339 0.8260444959868161
356 339 0.3489181188390760
359 339 0.2712790307321391
341 340 0.4362010559404279
357 340 0.9295022431104465
360 340 -0.8669392986846522
360 341 0.5295266579180273
363 341 0.1452986236152227
343 342 -0.5987426374095890
345 342 -0.2321543015839106
368 342 -0.0682088686788537
374 342 -0.3518478957487716
358 343 0.8774987029633472
368 343 0.0451979125339519
372 343 -0.9988402966399121
349 344 0.6768089846491898
356 344 -0.7434003723258156
362 344 -0.0145573290200507
371 345 -0.4705038605914487
374 345 -0.7014679403057955
389 345 -0.9905392620624409
349 346 -0.8423413800469985
352 346 0.8651692251350445
364 346 0.3010650959807124
365 346 0.2740867336039308
400 347 0.6448255867183448
786 347 0.2681661427655873
886 347 -0.6218756675923948
350 348 0.5483260597552415
359 348 -0.7842951750236519
367 348 0.6435438093203527
369 348 -0.8214056825464644
362 349 0.7929013946958829
365 349 0.2671285134434034
357 350 -0.0333567308572650
367 350 0.2813501388592181
370 350 0.7563402203436385
366 351 -0.9032563249610889
400 351 -0.2879421369060335
542 351 -0.8416089358195746
358 352 -0.6639301736503189
364 352 -0.9279152806176947
377 352 0.5987426374095890
354 353 0.1888790551469466
379 353 0.7865535447248757
394 353 0.2554704428235726
363 354 0.9645374919888912
394 354 -0.2139042329172643
398 354 0.5873287148655659
943 355 -0.9515976439710685
1036 355 0.0815759758293404
1392 355 -0.2993560594500565
359 356 -0.2154301583910642
362 356 0.4192327646717735
375 356 -0.2737205114902188
381 356 -0.4383983886226996
360 357 -0.3830378124332408
370 357 -0.7264320810571612
373 357 0.3150425733207189
372 358 -0.2814111758781701
377 358 -0.7601245155186620
386 358 0.5335551011688588
369 359 0.9190038758507035
375 359 0.4470656453138828
382 359 0.3591113010040590
363 360 0.4847865230262154
373 360 -0.5292825098422194
384 360 0.5794549394207587
672 361 -0.4123355815301981
795 361 0.9571520126957000
837 361 0.4741050447096165
365 362 -0.3754692220831934
378 362 0.3377483443708609
381 362 0.8986785485396893
384 363 0.5310525833918271
398 363 0.4376049073763237
444 363 -0.9399395733512376
365 364 0.9074678792687765
377 364 0.9971312601092563
380 364 0.5038300729392375
385 364 -0.3563646351512192
378 365 -0.7178258613849300
380 365 0.0782799768059328
383 365 0.8977629932554094
371 366 0.7880184331797235
542 366 -0.8441724906155583
587 366 -0.3182164983062227
369 367 0.9805291909543139
370 367 0.1608020264290293
387 367 -0.7274086733603931
388 367 -0.6664937284463026
372 368 -0.1019013031403546
374 368 0.1526230658894621
404 368 -0.0270699179052095
416 368 0.4740440076906645
382 369 0.9432966093935973
387 369 -0.9572130497146519
397 369 0.9476912747581407
373 370 -0.5540025025177771
388 370 -0.1573229163487655
392 370 0.3868831446272165
389 371 0.3240150151066621
583 371 0.4859462263863032
587 371 -0.9676503799554430
386 372 0.4399243140964995
404 372 -0.3536179692983795
426 372 -0.9681386761070589
384 373 0.9845576342051454
392 373 0.4271065401165808
417 373 0.3141270180364391
389 374 0.6600848414563432
416 374 0.6468398083437605
469 374 -0.5251319925534836
381 375 0.0388500625629444
382 375 -0.0365916928617206
399 375 0.0583208716086305
401 375 -0.9855342265083773
901 376 0.8836024048585467
943 376 0.6833399456770530
1135 376 -0.7973570970793786
385 377 0.4703207495345927
386 377 -0.5531479842524492
403 377 -0.5919064912869656
407 377 0.1631824701681570
413 377 -0.9532456434827723
420 377 0.7532883693960386
381 378 0.1508529923398541
383 378 0.6404309213538011
390 378 -0.5754264961699271
391 378 0.4141666920987579
394 379 0.1176488540299692
527 379 -0.1042817468794824
577 379 0.1798455763420514
383 380 0.6198614459669789
385 380 -0.0193792535172582
393 380 -0.8167668691061128
396 380 0.7387615588854641
390 381 0.5266579180272835
399 381 0.9670400097659231
408 381 -0.2674336985381633
397 382 -0.3209021271401105
401 382 0.6010620441297647
424 382 0.0769981994079409
391 383 0.3445234534745323
393 383 0.1929074983977783
395 383 -0.5171361430707724
417 384 -0.2565691091647084
444 384 -0.3368327890865810
554 384 -0.4789880062257760
396 385 0.9312112796411023
403 385 -0.7550584429456465
411 385 -0.8143253883480330
407 386 0.1731315042573320
426 386 -0.5858638264107181
477 386 0.1858272041993470
388 387 0.0730307931760612
397 387 -0.2548600726340525
421 387 -0.0937223426007874
452 387 -0.6456801049836727
392 388 -0.1758781701101718
421 388 -0.8525955992309335
468 388 0.4550004577776421
469 389 -0.7267372661519211
583 389 -0.1241187780388806
637 389 0.0549638355662709
391 390 -0.9205908383434553
408 390 -0.2464980010376293
409 390 0.1909543137913143
422 390 -0.6071047090060122
395 391 -0.4365672780541399
405 391 0.7646412549211097
409 391 -0.1029999694814905
417 392 -0.3299356059450056
468 392 -0.2938627277443769
540 392 -0.0661336100344859
395 393 0.0387890255439924
396 393 0.9720450453199865
402 393 0.5913571581163977
406 393 0.9871822260200811
398 394 -0.4940641499069185
577 394 -0.5726187932981353
652 394 0.4396191290017395
405 395 0.4435254982146672
406 395 0.1996215704824977
415 395 -0.0409863582262642
402 396 -0.3954283272804956
411 396 0.8760338145084994
418 396 0.4991302224799341
429 396 0.1329081087679678
432 396 0.2761009552293465
424 397 0.0516678365428633
452 397 -0.9074678792687765
513 397 0.9169896542252876
444 398 -0.5465559862056337
652 398 0.2629169591357159
662 398 0.2327646717734306
401 399 -0.8369701223792230
408 399 0.7501754814294870
472 399 -0.8375194555497909
4695 399 0.4817346720786158
542 400 -0.3763237403485213
821 400 -0.4068422498245186
886 400 0.4153874324777977
424 401 0.0057679982909635
472 401 -0.6835230567339091
515 401 -0.6201055940427869
406 402 -0.5208594012268442
414 402 0.4839930417798395
418 402 0.0489822077089754
411 403 -0.8462477492599262
413 403 0.8259224219489121
427 403 0.6925565355388044
436 403 -0.0843836787011323
416 404 0.3625904110843226
426 404 -0.0819421979430525
505 404 -0.1730704672383800
548 404 -0.4194158757286294
409 405 -0.7391888180181280
415 405 0.2507705923642689
423 405 -0.3744315927610096
425 405 0.1578112125003814
414 406 0.5195776238288523
415 406 0.7727591784417249
419 406 -0.6437269203772088
420 407 0.5012054811243019
477 407 0.6054567094943082
502 407 -0.0007629627368999
506 407 0.7286294137394329
422 408 0.7175817133091220
458 408 0.4918668172246468
4695 408 0.1280251472518081
422 409 0.7943662831507310
425 409 -0.2852565080721458
434 409 0.2648091067232277
441 409 -0.5273293252357555
901 410 -0.1009247108371227
911 410 -0.4025086214789270
1058 410 -0.8146305734427930
427 411 0.5240333262123478
432 411 0.7471236304818873
440 411 0.7231360820337536
447 411 -0.2276985992004150
1062 412 -0.0464796899319437
1159 412 -0.3586840418713950
1336 412 0.2303231910153507
4694 412 -0.5338602862636188
420 413 -0.1297341837824640
436 413 -0.0373851741080966
464 413 -0.1473128452406385
418 414 0.4381542405468917
419 414 0.6444593646046326
430 414 0.9490340891750846
431 414 -0.1698355052339243
419 415 -0.8941618091372417
423 415 0.6097903378398999
428 415 -0.1614734336375011
469 416 0.7307657094027529
505 416 -0.0808435316019166
603 416 0.9572740867336040
540 417 0.4381542405468917
554 417 -0.0057069612720114
632 417 0.9769890438550981
429 418 -0.8670613727225562
431 418 0.1800286873989074
438 418 -0.9877925962096011
428 419 0.0397045808282723
430 419 -0.9479354228339488
433 419 0.7299111911374248
464 420 -0.4455397198400830
493 420 0.4979705191198462
506 420 -0.5580919827875607
452 421 0.2074343089083530
468 421 -0.6437269203772088
564 421 -0.1385845515305032
434 422 0.6263924069948423
458 422 0.0833460493789484
4696 422 -0.3213293862727744
425 423 0.3290200506607257
428 423 -0.9357280190435500
435 423 0.8142643513290810
437 423 0.6527603991821040
513 424 0.0041199987792597
515 424 -0.0458693197424238
580 424 -0.7216101565599535
437 425 -0.7772759178441725
441 425 0.3168126468703270
448 425 -0.7824640644550920
455 425 0.0749229407635732
477 426 -0.5013885921811578
548 426 0.2154301583910643
600 426 -0.8253730887783440
436 427 -0.2515030365916928
447 427 0.3317056794946134
453 427 0.6902981658375804
463 427 -0.7772759178441725
433 428 0.0025940733054597
435 428 -0.0751060518204291
439 428 0.1918088320566425
432 429 -0.1681264687032685
438 429 0.9634388256477553
450 429 0.2914212469862971
451 429 0.5057832575457015
431 430 -0.8311105685598316
433 430 0.5569322794274727
443 430 -0.6271858882412182
445 430 -0.3517868587298196
438 431 0.6633198034607990
445 431 -0.9379863887447737
449 431 -0.3696707052827540
440 432 -0.6578264717551194
450 432 0.8268379772331920
456 432 0.9019135105441449
439 433 0.9207739494003113
442 433 -0.3610644856105227
443 433 -0.3607593005157628
441 434 0.7355265968810083
466 434 0.4707480086672566
4696 434 0.2465590380565814
437 435 0.8134098330637531
439 435 -0.0863979003265480
446 435 -0.2395397808771019
463 436 -0.8724326303903317
464 436 0.2514419995727408
488 436 0.3595385601367229
446 437 -0.8694418164616839
455 437 -0.0707724234748375
459 437 0.0052797021393476
449 438 -0.0616779076509903
451 438 -0.0761436811426129
460 438 0.8075502792443616
442 439 0.0527665028839992
446 439 0.3775444807275612
454 439 0.9749137852107304
447 440 0.2091433454390088
456 440 -0.7965025788140507
462 440 -0.2000488296151616
448 441 -0.7405316324350719
466 441 0.1722159489730521
471 441 -0.5543076876125370
443 442 0.9334086123233740
454 442 -0.4826502273628956
457 442 0.7093417157506028
445 443 -0.9530014954069643
457 443 -0.9421369060335093
461 443 0.6591692861720633
554 444 -0.1647083956419568
662 444 0.7217322305978575
4704 444 0.7542649616992707
449 445 -0.2280648213141270
461 445 0.8018738364818263
467 445 0.1770378734702598
454 446 -0.4847865230262154
459 446 -0.4656819360942411
465 446 -0.8986175115207373
453 447 -0.6497085482345042
462 447 -0.7167271950437941
4697 447 -0.1456038087099826
455 448 0.8035828730124821
471 448 -0.3490401928769798
473 448 -0.0240180669576098
460 449 -0.4571367534409619
467 449 0.7858821375164038
475 449 -0.4820398571733756
451 450 0.0625324259163182
456 450 0.8339182714316233
476 450 0.4211859492782373
478 450 -0.3932309945982239
460 451 0.2533951841792046
476 451 0.5656605731376079
479 451 -0.7145908993804743
513 452 -0.0826746421704764
564 452 -0.6342051454206976
613 452 0.8344065675832393
463 453 0.4465163121433149
486 453 0.1764885402996919
4697 453 0.4274727622302927
457 454 0.9328592791528061
465 454 -0.1015961180455947
470 454 -0.2139042329172643
459 455 0.0812707907345804
473 455 -0.6134525589770196
480 455 -0.2980742820520645
462 456 0.6508072145756401
478 456 -0.6471449934385205
482 456 -0.0992767113254188
461 457 -0.6048463393047884
470 457 -0.8037049470503861
474 457 0.8445997497482223
508 458 0.0289620654927214
524 458 -0.7642139957884457
4695 458 0.8928189947202978
4696 458 0.4168523209326456
465 459 0.3781548509170811
480 459 -0.1618396557512131
483 459 -0.4067201757866146
475 460 0.4213690603350932
479 460 -0.8401440473647267
487 460 -0.2327036347544786
467 461 -0.9978026673177282
474 461 0.5467390972624897
481 461 -0.0968962675862911
482 462 -0.3475753044221320
485 462 0.5845820490127263
4697 462 -0.6597796563615833
486 463 -0.8613849299600207
488 463 0.3824274422437208
510 463 -0.7706228827784051
488 464 0.4680623798333690
493 464 -0.1307107760856959
529 464 -0.0540482802819910
470 465 0.9793694875942258
483 465 0.7756889553514206
484 465 -0.3625904110843227
471 466 0.4786217841120639
499 466 0.1394390697958312
503 466 0.2123172704245124
4696 466 -0.9973143711661122
475 467 0.0797448652607806
481 467 0.0770592364268929
489 467 0.6805932798242134
540 468 -0.7573168126468703
564 468 0.9606921597949156
641 468 -0.9739982299264504
603 469 -0.1254005554368725
637 469 -0.9117404705954161
688 469 0.4883877071443832
474 470 -0.7932065797906430
484 470 -0.8308053834650716
490 470 -0.6931669057283243
473 471 0.6855983153782770
495 471 0.5759147923215431
499 471 -0.3782769249549852
515 472 0.9461043122653889
544 472 0.7503585924863430
581 472 -0.4836878566850795
4695 472 -0.8498489333780939
480 473 0.0496536149174474
495 473 0.1581163975951414
498 473 -0.2175664540543840
481 474 0.9496444593646047
490 474 0.6584368419446394
491 474 0.9080172124393444
487 475 0.0108951078829309
489 475 0.2090212714011048
492 475 0.9097872859889522
478 476 0.4760582293160802
479 476 -0.8897671437726982
494 476 -0.8084658345286416
496 476 0.0459913937803278
502 477 0.0383007293923765
592 477 -0.1573839533677175
600 477 -0.2590716269417401
482 478 -0.8535111545152134
494 478 -0.4744102298043763
497 478 -0.0913418988616596
487 479 -0.7243568224127934
496 479 -0.6055177465132603
504 479 0.0729697561571092
483 480 0.8494216742454299
498 480 -0.6660054322946867
4699 480 0.6914578691976685
489 481 -0.5736564226203192
491 481 0.0763267921994690
500 481 0.7329020050660726
485 482 0.4315622425000762
497 482 0.8686483352153080
4698 482 0.3438520462660604
484 483 0.4015930661946470
4699 483 -0.7504806665242469
4700 483 -0.7728202154606769
490 484 -0.0251777703176976
4700 484 -0.0452589495529039
4701 484 -0.4473097933896909
501 485 0.5273293252357554
512 485 0.1527451399273660
4697 485 -0.9346903897213660
4698 485 -0.3487350077822199
501 486 0.8510696737571337
510 486 0.5930661946470535
522 486 -0.2986846522415845
4697 486 -0.7015900143436995
492 487 0.9668568987090671
504 487 -0.0943937498092593
511 487 0.2880031739249855
510 488 -0.5463118381298258
529 488 0.2904446546830652
539 488 -0.0388500625629444
492 489 -0.1413312173833430
500 489 0.0805993835261085
507 489 0.7408368175298319
491 490 0.5741447187719351
509 490 -0.7439497054963835
4701 490 0.7924741355632190
500 491 0.0528275399029512
509 491 -0.1854609820856349
514 491 -0.5529648731955932
507 492 0.1587267677846613
511 492 -0.8906826990569781
516 492 0.2610858485671559
506 493 0.0129093295083469
529 493 0.4830164494766076
555 493 0.8558915982543414
496 494 0.5081026642658772
497 494 -0.1215552232428968
517 494 -0.1329081087679678
520 494 -0.6409802545243690
498 495 0.2393566698202461
499 495 -0.6587420270393993
504 496 0.3722342600787378
520 496 0.5728019043549912
523 496 0.1800897244178594
517 497 -0.5353251747184667
518 497 0.0907925656910917
4698 497 -0.6265755180516983
4699 498 -0.7589037751396221
503 499 -0.1036713766899625
507 500 -0.0597857600634785
514 500 0.4275337992492447
521 500 0.1662953581347086
512 501 -0.8250679036835841
522 501 0.9926145207068087
526 501 -0.5466780602435377
4697 501 -0.0031434064760277
506 502 0.5882442701498458
574 502 -0.8484450819421979
592 502 0.4402905362102114
508 503 0.6641132847071749
4696 503 -0.3564256721701712
511 504 0.9895016327402570
523 504 -0.6129032258064516
525 504 0.0242622150334177
548 505 0.2151249732963043
603 505 -0.4429151280251472
671 505 0.1226538895840328
555 506 0.6465346232490006
574 506 -0.5717642750328074
516 507 -0.0210272530289620
521 507 0.7708670308542132
528 507 0.6677144688253425
524 508 0.3459883419293801
4696 508 -0.3545945616016114
514 509 0.4230170598467970
4701 509 0.0262153996398815
522 510 0.5174413281655323
539 510 0.8160344248786888
556 510 0.5790887173070467
516 511 0.3867610705893125
525 511 -0.5468001342814417
530 511 0.4443800164799951
519 512 0.9218115787224952
526 512 0.0696127201147496
531 512 -0.9118015076143681
4698 512 -0.9606921597949156
580 513 -0.0154728843043306
613 513 0.2956938383129368
654 513 0.2957548753318888
521 514 -0.6273079622791222
580 515 0.2768333994567704
581 515 0.0610675374614704
633 515 -0.4855189672536393
528 516 0.8480788598284861
530 516 0.4289376506851406
532 516 -0.0476393932920316
518 517 0.5516220587786493
520 517 0.3415326395458846
533 517 -0.0813318277535325
534 517 0.2167119357890561
519 518 -0.3758354441969054
533 518 -0.6717429120761742
535 518 0.9429914242988373
4698 518 -0.6027710806604205
531 519 0.7008575701162756
535 519 0.1061128574480423
4698 519 0.9959715567491683
523 520 0.8486281929990540
534 520 -0.7924741355632191
536 520 0.9296853541673025
528 521 0.7169713431196021
526 522 -0.5574205755790886
543 522 -0.8416699728385266
556 522 0.8671224097415082
525 523 0.5705435346537675
536 523 -0.2210455641346477
537 523 -0.2251350444044313
544 524 0.1918698690755944
4695 524 0.9207739494003113
530 525 0.2114627521591845
537 525 0.6565446943571276
538 525 -0.8776818140202033
531 526 -0.9371318704794458
543 526 0.0038758507034515
545 526 -0.4359569078646199
577 527 0.7213660084841456
695 527 -0.2256843775749993
734 527 -0.0733359782708213
813 527 -0.1215552232428968
532 528 0.7684255500961332
539 529 0.9476302377391888
555 529 -0.3922544022949919
571 529 -0.2013306070131535
532 530 0.4175237281411175
538 530 0.8680379650257881
541 530 -0.0499588000122074
535 531 0.3401287881099888
545 531 0.4520096438489944
552 531 0.6984160893581957
541 532 -0.0729087191381573
534 533 0.1957762382885220
535 533 0.9498886074404127
549 533 0.7329020050660726
551 533 0.0713217566454054
536 534 0.5239722891933958
549 534 -0.8283028656880398
550 534 -0.0163884395886105
551 535 -0.0353099154637287
552 535 -0.2764671773430586
537 536 -0.5159764397106845
546 536 -0.3390911587878048
550 536 0.0473342081972716
538 537 -0.7390667439802240
546 537 0.1295510727256082
547 537 0.1114841151158177
541 538 -0.9463484603411969
547 538 0.6092410046693320
553 538 0.6586199530014953
556 539 -0.2246467482528154
570 539 -0.6089968565935240
571 539 0.3639942625202186
632 540 0.8323313089388715
641 540 -0.2745139927365947
704 540 -0.2285531174657430
553 541 -0.4031189916684469
587 542 0.8116397595141454
821 542 0.3512375255592517
831 542 -0.5895870845667898
545 543 0.5103610339671010
556 543 -0.5566270943327127
565 543 -0.2504654072695089
569 543 -0.8959929197058015
581 544 0.4552446058534501
4695 544 0.4571977904599140
552 545 0.3852351451155125
563 545 -0.5021210364085817
565 545 0.3746757408368175
547 546 -0.6158330027161474
550 546 -0.4166081728568377
557 546 -0.1401715140232551
558 546 -0.2644428846095157
553 547 -0.9880977813043611
557 547 0.4165471358378856
559 547 -0.3309732352671896
600 548 -0.9882808923612171
671 548 0.1858272041993470
707 548 0.5481429486983855
550 549 0.3339030121768853
551 549 -0.2206183050019837
560 549 -0.2283089693899349
561 549 -0.4033631397442549
558 550 -0.6482436597796564
560 550 -0.5107882930997650
552 551 0.5904416028321178
561 551 0.5809808648945585
562 551 0.2219000823999755
562 552 0.9762565996276742
563 552 -0.8620563371684927
559 553 0.0101626636555070
632 554 0.4254585406048768
729 554 -0.2294686727500229
4704 554 -0.0969573046052431
571 555 0.1811273537400433
574 555 0.7841120639667958
612 555 -0.7284463026825769
569 556 0.0946378978850673
570 556 0.2447279274880214
585 556 0.5099948118533890
558 557 0.8477736747337261
559 557 -0.4071474349192785
566 557 -0.3951841792046876
567 557 -0.7402874843592639
560 558 0.9247413556321908
566 558 -0.0657673879207740
568 558 0.2114017151402325
567 559 0.5048066652424696
561 560 0.1242408520767846
568 560 -0.8549150059511094
572 560 -0.6892605365153965
562 561 -0.4693441572313608
572 561 0.5164036988433485
573 561 0.2349009674367504
563 562 -0.7848445081942198
573 562 0.3777275917844172
575 562 0.0475783562730796
565 563 0.1623279519028291
575 563 -0.3448896755882442
576 563 -0.9642933439130833
613 564 0.2067629016998809
641 564 -0.9134495071260720
691 564 -0.7249061555833614
569 565 -0.7954039124729149
576 565 -0.0076601458784753
584 565 0.7161168248542742
567 566 -0.1625720999786371
568 566 -0.0653401287881100
578 566 0.2429578539384136
579 566 -0.4321726126895963
578 567 -0.3053376873073519
572 568 -0.5422833948789941
579 568 -0.6071047090060122
582 568 -0.0514236884670553
584 569 0.0951872310556352
585 569 0.5223242896816920
595 569 0.7172765282143621
571 570 0.4722128971221045
585 570 0.8821375164036989
598 570 -0.4546952726828821
609 570 0.1263771477401043
609 571 0.9240089114047669
612 571 -0.8501541184728538
626 571 0.8924527726065858
573 572 0.5747550889614552
582 572 -0.7149571214941862
4702 572 -0.5794549394207587
575 573 0.6003295999023408
586 573 0.1451155125583667
4702 573 -0.2698141422772912
592 574 0.9016693624683370
612 574 0.8521683400982696
665 574 -0.1290627765739921
576 575 -0.5901974547563097
586 575 0.3887752922147283
588 575 -0.4802087466048158
584 576 0.3598437452314829
588 576 0.8305001983703115
593 576 0.3751640369884335
652 577 0.0854823450422681
734 577 -0.7200842310861537
794 577 -0.3552049317911313
579 578 0.9309671315652943
589 578 0.2536393322550126
582 579 0.7723929563280130
589 579 0.6647846919156468
590 579 0.9144260994293039
633 580 0.5679799798577838
654 580 0.8519852290414136
684 580 -0.0904873805963317
633 581 -0.9226050599688711
590 582 -0.6561784722434156
591 582 -0.1416364024781029
4702 582 -0.4986419263283182
587 583 0.6285287026581621
637 583 -0.7697073274941252
778 583 0.0212103640858181
809 583 -0.7784966582232123
593 584 -0.1852168340098269
595 584 -0.2866603595080416
604 584 -0.7998596148564104
595 585 -0.4613483077486495
598 585 0.0865810113834040
606 585 0.8727988525040438
588 586 0.8639484847560046
594 586 -0.0773033845027009
596 586 0.4061708426160466
4702 586 0.7056184575945310
809 587 -0.6304208502456741
831 587 -0.7437055574205755
593 588 -0.7365031891842402
596 588 -0.6711935789056063
601 588 0.6057618945890684
590 589 0.1561632129886776
597 589 0.9617908261360515
591 590 0.3729056672872098
597 590 -0.9392071291238135
599 590 0.0172429578539384
594 591 -0.2652363658558916
599 591 0.8796349986266672
602 591 -0.6199835200048829
4702 591 0.5923337504196295
600 592 0.2588885158848842
665 592 0.0160832544938505
676 592 -0.5268410290841395
601 593 0.9188818018127995
604 593 0.1220435193945129
610 593 -0.0821863460188604
596 594 -0.7647633289590137
602 594 -0.5939817499313333
605 594 0.8124332407605213
4702 594 0.9732657856990266
604 595 -0.0562456129642628
606 595 -0.1051973021637623
616 595 0.7886288033692435
601 596 0.8618121890926846
605 596 0.3931089205603198
608 596 -0.4973601489303262
599 597 -0.8049256874294259
607 597 -0.3411664174321726
606 598 0.8307443464461195
609 598 -0.9335917233802301
619 598 -0.2157353434858241
602 599 0.3194372386852626
607 599 0.7560350352488785
611 599 -0.0050965910824915
676 600 -0.3920712912381359
707 600 0.8530838953825495
731 600 -0.3545335245826594
608 601 0.3444624164555803
610 601 0.0411694692831202
614 601 -0.4973601489303262
605 602 0.6653340250862148
611 602 -0.0706503494369335
615 602 0.7003692739646596
671 603 -0.7597582934049500
688 603 0.4360179448835719
739 603 -0.7196569719534898
610 604 -0.1813715018158513
616 604 0.8909878841517380
620 604 0.9088106936857203
608 605 0.2629779961546679
615 605 -0.3595385601367229
617 605 -0.8013245033112583
616 606 0.4193548387096775
619 606 -0.8317819757683035
627 606 0.3987853633228553
611 607 -0.8541825617236855
618 607 -0.0214545121616260
614 608 0.0895718253120517
617 608 -0.5642567217017120
622 608 0.8391674550614947
619 609 -0.1352885525070956
625 609 -0.6039918210394604
626 609 -0.9683217871639149
614 610 0.2746971037934507
620 610 0.5789056062501907
623 610 -0.8833582567827387
615 611 -0.4971770378734702
618 611 0.2941679128391370
621 611 -0.7740409558397168
626 612 0.0472121341593676
658 612 -0.8690755943479720
665 612 -0.9550157170323801
678 612 -0.6158940397350994
654 613 0.3918271431623279
691 613 -0.5117648854029969
723 613 0.2571184423352764
622 614 -0.4753257850886563
623 614 0.7524948881496627
617 615 -0.2814111758781701
621 615 0.6483046967986084
624 615 0.0461745048371838
620 616 -0.7209387493514816
627 616 0.3386028626361888
635 616 0.7711722159489731
622 617 -0.0171208838160344
624 617 -0.2088381603442487
628 617 0.1207007049775688
621 618 0.6141239661854916
629 618 -0.5472273934141056
625 619 0.6859645374919889
627 619 0.6207159642323068
638 619 0.2684102908413952
623 620 0.9057588427381207
634 620 -0.5571153904843287
635 620 -0.0874965666676839
643 620 0.9743644520401624
624 621 -0.7650074770348216
629 621 0.5395367290261543
631 621 0.0921964171269876
623 622 0.8589434492019410
628 622 -0.1853999450666829
630 622 -0.4110538041322062
630 623 0.1140476699118016
634 623 0.6771141697439498
628 624 0.5250709555345316
631 624 -0.4867397076326793
636 624 0.5215918454542681
626 625 -0.1301614429151280
638 625 0.8297067171239356
646 625 -0.4358348338267160
646 626 -0.3649708548234504
658 626 0.2508316293832209
635 627 -0.0356761375774407
638 627 -0.9962767418439283
648 627 -0.2412488174077578
630 628 -0.3655812250129704
636 628 -0.6971953489791558
640 628 0.2582171086764122
631 629 0.9705191198461867
642 629 0.7182531205175939
634 630 0.9608752708517716
639 630 -0.6433606982634967
640 630 -0.9448225348673971
636 631 -0.4689168980986969
642 631 -0.2996612445448165
644 631 0.4672688985869931
704 632 -0.8540604876857815
729 632 0.7606738486892299
770 632 0.1974852748191778
684 633 0.3439741203039643
639 634 -0.3657032990508744
643 634 0.2723776970732750
647 634 0.7360759300515762
643 635 -0.5045014801477096
648 635 -0.0872524185918759
659 635 0.1318704794457839
640 636 -0.6104617450483718
644 636 -0.1098971526230659
645 636 0.5117038483840448
688 637 0.4442579424420912
778 637 -0.2462538529618213
782 637 0.0069277016510514
646 638 -0.8066347239600817
648 638 -0.6779076509903257
657 638 0.2925809503463850
640 639 -0.9512924588763085
647 639 -0.4344309823908200
649 639 -0.7050691244239631
645 640 0.3600878933072909
649 640 -0.8735923337504197
691 641 -0.2231818597979675
704 641 -0.5276345103305154
751 641 0.9602649006622517
644 642 -0.7708059938352610
650 642 -0.1431012909329509
647 643 -0.2258674886318552
655 643 -0.6923734244819483
659 643 -0.2081057161168248
645 644 -0.7362590411084322
650 644 0.5384380626850185
651 644 -0.7479781487472152
649 645 -0.3269447920163580
651 645 -0.7999816888943144
653 645 -0.1778923917355877
657 646 0.6275521103549302
658 646 0.3553880428479872
668 646 -0.7380291146580401
649 647 -0.2953886532181769
655 647 -0.4086733603930784
656 647 -0.8191473128452407
657 648 0.9826044495986817
659 648 -0.0915860469374675
669 648 -0.9878536332285531
653 649 0.4347972045045321
656 649 -0.1683095797601245
651 650 0.0481887264625995
660 650 0.9728995635853146
653 651 0.0884121219519638
660 651 0.2359996337778862
661 651 0.8214667195654164
662 652 0.4481643116550187
769 652 -0.9844965971861934
794 652 -0.8192693868831447
838 652 -0.5467390972624897
656 653 0.2209234900967436
661 653 0.4935148167363506
663 653 0.9560533463545640
684 654 -0.2928861354411451
723 654 0.0992156743064669
741 654 0.8020569475386823
656 655 0.6101565599536118
659 655 -0.2250740073854793
664 655 0.4967497787408064
666 655 0.7325357829523607
663 656 0.6725974303415021
664 656 0.3582567827387311
668 657 -0.5612659077730644
669 657 0.8192693868831447
680 657 0.7090365306558428
668 658 0.2533341471602526
678 658 -0.9434186834315013
686 658 0.1068453016754662
666 659 0.2705465865047152
669 659 -0.2468031861323893
675 659 0.6328623310037538
661 660 -0.7358317819757683
4703 660 0.8003479110080263
663 661 -0.8224433118686483
667 661 0.2596209601123081
4703 661 -0.1404766991180151
769 662 -0.9403668324839015
781 662 0.8453932309945982
4704 662 0.1730094302194281
664 663 0.6076540421765801
667 663 -0.3641163365581225
670 663 -0.2000488296151616
666 664 -0.1745353556932280
670 664 0.4020203253273109
673 664 -0.9048432874538408
676 665 -0.3980529190954314
678 665 -0.2409436323129979
724 665 0.9454939420758690
733 665 -0.6581926938688314
673 666 0.5000457777642140
675 666 0.3422650837733086
679 666 0.7902157658619953
670 667 0.7479171117282633
674 667 0.2933744315927611
677 667 0.4318674275948362
4703 667 -0.3993957335123752
680 668 0.6138187810907316
686 668 -0.8015686513870662
698 668 0.0242011780144658
675 669 0.4516434217352825
680 669 -0.4753868221076083
689 669 -0.9683217871639149
673 670 -0.0439161351359599
677 670 0.9742423780022584
681 670 -0.8375804925687429
707 671 0.0213324381237221
739 671 0.7197180089724418
773 671 -0.8384960478530229
695 672 0.1386455885494553
795 672 -0.4395580919827876
896 672 -0.5469222083193457
990 672 0.6472670674764245
679 673 -0.5916013061922056
681 673 0.2142094180120242
683 673 -0.8311105685598316
677 674 -0.7303994872890408
682 674 -0.1704458754234444
4703 674 -0.7069002349925230
679 675 -0.7161168248542742
689 675 -0.2675557725760673
690 675 -0.5718863490707113
731 676 -0.6941434980315562
733 676 -0.4883266701254311
761 676 0.1768547624134038
681 677 0.9341410565507982
682 677 -0.3974425489059115
685 677 0.1816766869106112
686 678 -0.5246436964018677
715 678 -0.8513138218329417
724 678 0.5228125858333079
683 679 -0.9546494949186681
687 679 -0.9385967589342936
690 679 0.7062898648030029
689 680 0.3597827082125309
698 680 -0.3652760399182104
701 680 0.1062959685048983
683 681 -0.2066408276619770
685 681 0.4530472731711783
692 681 -0.7675099948118533
685 682 -0.1439558091982788
693 682 0.3873714407788325
687 683 0.7231971190527056
692 683 -0.4806360057374798
694 683 -0.0583208716086306
741 684 0.5768913846247750
692 685 0.9600817896053957
693 685 -0.0412305063020723
696 685 0.4738608966338085
698 686 -0.4731894894253365
715 686 0.1776482436597797
718 686 0.9827265236365856
690 687 0.7357097079378643
694 687 0.6507461775566881
697 687 -0.6526993621631519
739 688 -0.9592272713400678
782 688 0.2854396191290018
802 688 -0.4478591265602588
690 689 -0.1765495773186437
699 689 0.5753044221320232
701 689 -0.7181920834986419
708 689 0.2985015411847285
697 690 0.7719046601763970
699 690 0.9839472640156255
723 691 -0.1549424726096378
751 691 0.5892818994720297
779 691 -0.0845057527390363
694 692 -0.3659474471266824
696 692 -0.7355265968810083
700 692 -0.6188238166447950
696 693 0.9086275826288643
703 693 0.9899288918729210
697 694 0.8675496688741722
700 694 -0.4670247505111851
705 694 -0.3477584154789880
813 695 0.9152806176946318
887 695 -0.6395764030884732
896 695 -0.9676503799554430
700 696 0.8643147068697166
703 696 0.2150639362773523
706 696 0.4546342356639301
699 697 -0.6328012939848018
702 697 -0.7851496932889798
705 697 0.4770958586382641
701 698 -0.4095278786584063
716 698 0.6038697470015564
718 698 0.3417157506027406
702 699 0.2776268807031466
708 699 -0.4285103915524766
710 699 -0.2647480697042757
705 700 0.0561235389263588
706 700 0.8124332407605213
709 700 -0.0790734580523087
708 701 -0.1393780327768792
716 701 -0.9464705343791009
717 701 -0.9840083010345775
705 702 -0.2264168218024232
710 702 0.7601855525376140
711 702 -0.5602893154698325
706 703 -0.7680593279824213
712 703 -0.8847010711996826
751 704 0.4263740958891569
770 704 0.3866389965514083
808 704 -0.5037079989013337
709 705 0.1827753532517471
711 705 0.1150242622150335
709 706 -0.7708670308542130
712 706 -0.5032197027497177
713 706 -0.1642811365092929
731 707 0.4786217841120639
773 707 -0.6840113528855251
790 707 0.2702414014099552
710 708 0.7143467513046662
717 708 -0.6566667683950316
719 708 0.9268776512955108
711 709 0.7011627552110355
713 709 -0.0054628131962035
714 709 0.6943266090884121
711 710 0.5687124240852077
719 710 0.8828699606311228
720 710 -0.4468214972380748
714 711 -0.5707876827295755
720 711 0.9631946775719473
713 712 -0.5946531571398053
721 712 0.3560594500564593
714 713 -0.5551011688589129
721 713 -0.9618518631550035
722 713 0.6306039613025300
720 714 0.8807336649678030
722 714 -0.3821832941679129
725 714 0.2356334116641743
718 715 -0.9812005981627857
724 715 0.3877376628925444
740 715 -0.7581713309121982
755 715 0.4482253486739707
717 716 0.5686513870662557
718 716 0.8510696737571337
730 716 -0.5144505142368847
735 716 -0.1023285622730186
719 717 0.4323557237464521
727 717 0.3621021149327066
730 717 0.4316232795190282
735 718 0.2668233283486434
740 718 0.7694021423993651
720 719 -0.1820429090243233
726 719 0.2604754783776360
727 719 -0.6019775994140446
725 720 -0.0986053041169469
726 720 -0.2918485061189612
722 721 0.1412701803643910
728 721 0.8707235938596758
725 722 0.8296456801049836
728 722 0.8110904263435774
732 722 -0.6075930051576282
741 723 0.7697683645130773
779 723 0.1788079470198676
792 723 -0.3870052186651204
733 724 0.4737998596148565
755 724 0.9588000122074039
763 724 -0.3712576677755058
726 725 0.2626728110599079
732 725 0.3737601855525376
736 725 -0.8311105685598316
727 726 0.8973357341227455
736 726 -0.1268044068727683
737 726 -0.0467848750267037
730 727 -0.7832575457014679
737 727 0.3362834559160131
742 727 0.9842524491103855
732 728 -0.1908932767723625
738 728 -0.3358561967833491
770 729 0.2029175695059053
814 729 -0.0032654805139317
841 729 0.2200079348124637
4704 729 0.2309945982238228
735 730 0.6700338755455184
742 730 -0.6071047090060122
745 730 -0.2638935514389478
761 731 0.2754905850398266
790 731 -0.3629566331980346
803 731 0.5540635395367290
736 732 -0.0235297708059938
738 732 0.6523941770683921
743 732 0.4036072878200629
761 733 0.9881588183233130
763 733 -0.8044373912778100
788 733 -0.7366863002410962
794 734 0.2698751792962433
813 734 0.7802056947538683
870 734 0.1820429090243232
740 735 -0.3893246253852962
745 735 0.1243629261146886
750 735 0.0781579027680288
737 736 -0.9482406079287088
743 736 0.6678365428632465
746 736 0.0829187902462845
742 737 0.4258247627185889
746 737 0.4983977782525102
748 737 -0.6215704824976348
743 738 -0.7589037751396221
747 738 -0.2433851130710776
773 739 0.0627155369731742
802 739 0.0974456007568589
827 739 0.6019165623950926
750 740 -0.1407818842127750
755 740 0.9849848933378094
759 740 0.2851344340342417
792 741 -0.7578661458174383
745 742 0.1291848506118962
748 742 0.2005981627857296
752 742 0.7685476241340372
746 743 0.7795953245643483
747 743 0.4175237281411175
749 743 -0.9558091982787561
786 744 -0.1188695944090090
911 744 0.2029175695059053
1032 744 0.7900326548051393
1051 744 -0.7779473250526444
750 745 -0.2058473464156011
752 745 0.1283303323465681
756 745 -0.9915158543656728
748 746 -0.3829767754142888
749 746 0.3518478957487716
753 746 0.5436262092959381
749 747 -0.4517044587542345
754 747 0.4883877071443832
752 748 0.7230750450148016
753 748 -0.8966032898953216
757 748 0.9620960112308115
753 749 0.6278572954496902
754 749 0.1817377239295632
758 749 0.0375682851649526
756 750 -0.5950193792535172
759 750 0.0359813226722008
767 750 0.3288979766228217
779 751 0.7354045228431043
808 751 -0.8682821131015961
833 751 -0.3200476088747826
756 752 0.0683919797357098
757 752 0.0683309427167578
762 752 -0.2208624530777917
757 753 0.8966032898953216
758 753 -0.3507492294076358
760 753 -0.4869228186895352
758 754 -0.7537156285287027
764 754 0.0011902218695639
759 755 -0.9133884701071200
763 755 -0.8618732261116367
783 755 -0.0152897732474746
791 755 0.6675923947874385
762 756 -0.7253334147160253
767 756 -0.4836268196661275
772 756 -0.4886318552201910
760 757 -0.3613086336863307
762 757 -0.8973967711416975
765 757 -0.3746147038178655
760 758 0.9568468276009399
764 758 0.3324381237220375
768 758 0.8878749961851864
767 759 -0.2009033478804895
780 759 0.4609210486159856
783 759 -0.0954313791314432
765 760 -0.5624256111331523
768 760 -0.2075563829462569
771 760 -0.7713553270058291
788 761 0.3308511612292855
803 761 -0.9476912747581409
818 761 -0.9783318582720419
765 762 -0.9411603137302774
772 762 -0.9287087618640706
774 762 -0.2175664540543840
788 763 -0.9564806054872280
791 763 -0.8422193060090946
805 763 -0.1208838160344249
768 764 -0.7479781487472152
775 764 -0.6658833582567827
771 765 -0.9494003112887967
774 765 -0.6834009826960051
837 766 -0.6387218848231453
853 766 0.4325388348033081
1100 766 -0.5971556749168371
1118 766 -0.4595171971800898
772 767 0.1801507614368114
780 767 -0.4912564470351268
784 767 -0.4354075746940519
771 768 0.9193090609454635
775 768 0.3459883419293801
776 768 0.4208807641834773
781 769 -0.3500167851802118
838 769 -0.9545884578997161
849 769 0.2779320657979065
808 770 -0.6771752067629018
841 770 -0.0361033967101047
859 770 -0.2958769493697928
774 771 -0.4803308206427198
776 771 -0.1147801141392254
777 771 -0.4105044709616382
774 772 0.3619800408948026
784 772 0.5241554002502518
785 772 -0.8080996124149297
790 773 0.9478133487960447
827 773 -0.2625507370220038
856 773 0.1914426099429305
777 774 0.3752861110263375
785 774 0.1426129947813348
776 775 0.0160222174748985
787 775 -0.5260475478377635
777 776 -0.9481185338908048
787 776 -0.0967131565294351
789 776 -0.7277138584551530
785 777 0.3598437452314829
789 777 -0.3783379619739372
793 777 0.9374980925931578
782 778 0.6616107669301432
809 778 0.5480208746604815
860 778 0.4925992614520707
876 778 0.5066377758110294
792 779 -0.0561845759453108
833 779 -0.8727378154850918
839 779 0.2939237647633290
783 780 0.0363475447859127
784 780 -0.0987273781548509
797 780 -0.4285103915524766
799 780 0.1399884029663991
814 781 0.5750602740562152
849 781 -0.7855159154026917
873 781 -0.6360362559892575
4704 781 0.0077822199163793
802 782 -0.0881679738761559
860 782 0.3564256721701713
861 782 0.5631580553605762
791 783 0.2893459883419294
799 783 0.1681264687032686
804 783 0.0696127201147496
785 784 0.6220587786492509
796 784 0.5836054567094944
797 784 -0.3265785699026460
793 785 0.9874263740958891
796 785 -0.2255623035370953
886 786 0.7879573961607715
1051 786 -0.0605182042909024
1056 786 -0.0375682851649526
789 787 0.2995391705069124
798 787 0.5537583544419691
805 788 -0.4558549760429701
818 788 -0.3357951597643971
825 788 -0.0215155491805781
793 789 0.1676992095706045
798 789 -0.2617572557756279
800 789 -0.9905392620624409
803 790 -0.9455549790948210
834 790 0.9207129123813593
856 790 -0.4127628406628621
804 791 0.9864497817926572
805 791 -0.9907223731192969
819 791 0.0283516953032015
839 792 -0.5392315439313944
796 793 -0.5639515366069521
800 793 0.4690389721366008
801 793 0.1645252845851009
838 794 0.6824243903927731
870 794 -0.6463515121921446
885 794 0.5507065034943692
837 795 0.6700949125644704
990 795 0.1519516586809899
1048 795 0.2713400677510911
797 796 0.9634388256477553
801 796 0.5010223700674459
806 796 -0.2472914822840052
799 797 -0.7140415662099063
806 797 -0.8246406445509201
811 797 -0.0237739188818018
800 798 -0.6429944761497848
807 798 -0.7062898648030030
804 799 -0.0398266548661763
811 799 -0.6106448561052278
815 799 -0.7590258491775261
801 800 0.9941404461806085
807 800 -0.3658864101077304
810 800 -0.4538407544175542
806 801 0.7229529709768976
810 801 0.2262947477645192
812 801 0.2979522080141606
827 802 0.2900173955504013
861 802 0.8362987151707511
868 802 -0.8003479110080264
818 803 0.3945738090151678
834 803 0.0782799768059328
846 803 -0.1498764000366222
815 804 -0.8181096835230568
819 804 0.8958708456678977
824 804 0.6722922452467421
819 805 -0.5494247260963774
825 805 -0.7942442091128269
835 805 -0.5693227942747277
811 806 0.0025330362865077
812 806 0.3939634388256477
817 806 0.3587450788903470
810 807 -0.3327433088167974
816 807 -0.7274697103793450
833 808 -0.5544907986693930
859 808 0.2168950468459121
875 808 0.2613910336619159
831 809 -0.6365855891598254
876 809 0.4161198767052217
926 809 0.9854731894894253
812 810 0.6840723899044772
816 810 0.6016724143192846
820 810 -0.8915372173223060
815 811 -0.0904263435773797
817 811 0.2400280770287180
822 811 0.9528183843501083
817 812 0.9865718558305612
820 812 -0.4835047456282235
823 812 -0.4094058046205024
870 813 0.7031159398174993
887 813 -0.6204107791375469
917 813 0.2526627399517807
841 814 -0.9069795831171605
873 814 0.6925565355388044
890 814 -0.9653920102542192
4704 814 -0.9225440229499191
822 815 -0.7320474868007447
824 815 0.1605578783532213
830 815 0.8281807916501358
820 816 0.5773186437574389
828 816 -0.2906277657399212
822 817 -0.7324137089144567
823 817 0.4512161626026185
826 817 0.1604968413342693
825 818 -0.2523575548570208
846 818 0.3556932279427474
848 818 0.8791467024750512
824 819 -0.1022064882351146
835 819 -0.8206732383190405
842 819 -0.9913937803277688
823 820 -0.5604724265266885
828 820 0.5693838312936796
829 820 0.3759575182348094
831 821 0.9763786736655782
886 821 -0.7103183080538347
932 821 0.4814905240028078
981 821 0.0837733085116124
826 822 0.0247505111850337
830 822 0.1174047059541612
836 822 0.6150395214697715
826 823 0.2279427472762230
829 823 0.7738578447828608
832 823 -0.1239967040009766
830 824 0.6691183202612385
842 824 0.0328684347056489
844 824 -0.4134342478713340
835 825 0.3683278908658101
848 825 -0.4391918698690755
852 825 0.7714774010437331
832 826 -0.4288766136661886
836 826 0.4894863734855190
856 827 0.9453718680379650
868 827 -0.5443586535233620
888 827 0.7589037751396221
829 828 -0.0566118350779747
840 828 -0.6823633533738211
832 829 0.7813043610950041
840 829 -0.4794763023773919
843 829 -0.7564012573625905
836 830 -0.7410809656056399
844 830 -0.3612475966673787
847 830 0.2833643604846339
926 831 0.8125553147984252
932 831 -0.6103396710104678
836 832 -0.4968718527787103
843 832 -0.3885311441389202
845 832 0.9903561510055849
839 833 -0.4069643238624225
875 833 -0.9846186712240974
877 833 -0.2883083590197455
846 834 -0.2336191900387585
856 834 -0.9307840205084383
866 834 0.0677205725272378
842 835 -0.5716422009949034
852 835 0.0466628009887997
857 835 -0.2144535660878323
845 836 -0.2951445051423689
847 836 -0.2118900112918485
1048 837 -0.7324137089144567
1100 837 0.8823206274605548
849 838 -0.8452101199377422
885 838 0.1584826197088534
895 838 -0.8286690878017517
877 839 0.5994140446180609
843 840 0.3009430219428084
850 840 0.0821863460188605
859 841 0.5525986510818812
890 841 -0.7161168248542742
899 841 0.9074068422498245
844 842 0.8495437482833339
855 842 0.7913754692220831
857 842 0.0429395428327279
845 843 0.9116183965575122
850 843 -0.1282082583086642
851 843 0.9829096346934416
847 844 0.6031983397930845
855 844 -0.9045991393780328
858 844 -0.0822473830378124
847 845 0.4782555619983520
851 845 0.9401226844080934
854 845 0.4477370525223547
848 846 0.2759788811914425
866 846 -0.3530686361278115
879 846 0.2389904477065341
854 847 -0.4695272682882168
858 847 -0.0944547868282113
852 848 0.6752220221564378
864 848 -0.2491225928525651
879 848 0.1621448408459731
873 849 -0.3624683370464187
895 849 -0.7884456923123875
913 849 -0.8950163274025696
851 850 0.7291177098910488
862 850 -0.5105441450239570
854 851 0.6730857264931180
862 851 0.6415295876949370
863 851 -0.5610827967162084
857 852 0.1559801019318217
864 852 0.0234687337870418
869 852 -0.6747947630237738
998 853 0.8275093844416639
1118 853 0.7377239295632800
1200 853 0.8372753074739829
858 854 0.8049867244483779
863 854 -0.1676992095706046
865 854 -0.2295907467879269
857 855 0.4608600115970336
858 855 -0.8210394604327524
867 855 0.7451704458754234
872 855 -0.3817560350352489
866 856 -0.9158299508651997
888 856 -0.9691152684102908
905 856 -0.6443983275856807
869 857 -0.7078768272957549
872 857 -0.4650715659047212
865 858 -0.7034211249122593
867 858 -0.4009826960051271
875 859 -0.2433851130710776
899 859 -0.3921323282570879
909 859 -0.4734946745200964
861 860 -0.9794915616321299
876 860 0.7876522110660116
893 860 -0.2583391827143162
916 860 0.1044648579363383
868 861 0.3679006317331461
893 861 -0.5565660573137607
900 861 -0.1435285500656148
863 862 0.9863277077547532
871 862 -0.3738822595904416
865 863 -0.7886898403881955
871 863 0.1631824701681570
874 863 0.5203711050752282
869 864 -0.1941282387768182
879 864 -0.1073946348460341
882 864 -0.2411877803888058
867 865 0.9127170628986481
874 865 0.7979064302499466
878 865 -0.7116611224707785
879 866 -0.1808832056642353
898 866 -0.1009857478560747
905 866 0.6069826349681082
872 867 0.7487716299935911
878 867 -0.7988830225531784
880 867 -0.8136539811395611
888 868 0.2767723624378184
900 868 -0.3525193029572435
907 868 -0.7313150425733207
872 869 -0.7730033265175329
882 869 -0.1811273537400433
884 869 0.8453932309945982
885 870 -0.2466811120944853
917 870 0.8864101077303383
925 870 -0.5418561357463301
874 871 0.2038331247901852
881 871 0.4619586779381695
880 872 -0.4314401684621723
884 872 -0.4929044465468306
891 872 0.2124393444624164
890 873 0.6458632160405287
913 873 0.3607593005157628
922 873 -0.8187200537125767
878 874 0.7916806543168431
881 874 0.8413037507248147
883 874 -0.2396008178960539
877 875 -0.3309121982482376
909 875 -0.6658223212378307
910 875 0.9960325937681203
916 876 0.5463728751487777
926 876 -0.2322153386028626
947 876 -0.9528183843501083
910 877 -0.3069856868190558
880 878 -0.6426892910550248
883 878 -0.6017944883571886
889 878 -0.3427533799249245
882 879 0.2846461378826257
898 879 -0.4603106784264657
908 879 -0.6887722403637806
889 880 -0.4582964568010498
891 880 0.7491988891262551
883 881 0.8275704214606159
892 881 0.2978301339762566
884 882 -0.6520279549546800
903 882 -0.9172338023010956
908 882 0.4169743949705496
889 883 0.2158574175237282
892 883 0.1638538773766289
894 883 -0.9611194189275796
891 884 0.9978637043366803
902 884 0.1453596606341747
903 884 0.3006988738670002
895 885 0.0280465102084415
925 885 0.3044221320230720
936 885 -0.0142521439252907
981 886 -0.2471694082461012
1056 886 -0.0101016266365551
1094 886 -0.2511368144779809
896 887 0.8064516129032258
917 887 0.3951231421857357
958 887 -0.9488509781182287
1004 887 0.6985992004150516
905 888 0.2640766624958037
907 888 0.9810785241248818
919 888 0.7802667317728202
891 889 -0.0392162846766564
894 889 0.3987853633228553
897 889 -0.9955442976165044
899 890 0.8528397473067415
922 890 -0.9633167516098514
934 890 0.1216772972808009
897 891 0.4870448927274391
902 891 -0.0602740562150944
894 892 0.7080599383526109
904 892 -0.2936185796685690
900 893 -0.2466200750755333
916 893 0.6299325540940581
927 893 -0.4828333384197516
897 894 -0.4032410657063509
904 894 0.2580950346385082
906 894 -0.7985168004394665
913 895 -0.2947782830286568
936 895 0.8437452314828944
952 895 0.5251930295724356
990 896 0.0523392437513353
1004 896 -0.8306222724082156
1059 896 -0.5165868099002044
902 897 0.2634052552873318
906 897 -0.3962828455458235
912 897 -0.9980468153935362
905 898 0.1694692831202125
908 898 0.7202673421430097
923 898 -0.5107272560808129
929 898 -0.8254951628162480
909 899 -0.6289559617908261
934 899 0.3364665669728690
942 899 -0.1589098788415174
907 900 -0.0714438306833094
921 900 -0.5492416150395214
927 900 -0.2364268929105503
1058 901 0.4862514114810632
1135 901 -0.5642567217017120
1222 901 -0.0668050172429578
903 902 -0.6919461653492843
912 902 0.8662068544572283
914 902 -0.7090975676747948
908 903 -0.7225867488631855
914 903 0.8627277443769645
920 903 0.4909512619403669
906 904 0.3983581041901914
915 904 -0.5333719901120029
919 905 -0.6106448561052278
929 905 0.7413251136814478
937 905 0.8163396099734488
912 906 0.7256996368297373
915 906 0.0152897732474746
918 906 -0.1694082461012604
919 907 0.1201513718070009
921 907 0.6806543168431654
935 907 -0.1957152012695700
920 908 -0.2601092562639241
923 908 -0.1517075106051821
931 908 -0.7276528214362010
910 909 0.2671895504623554
940 909 0.9379253517258217
942 909 0.5919675283059176
940 910 -0.2641987365337077
1032 911 -0.3275551622058779
1058 911 -0.3017365031891842
1172 911 -0.7076326792199469
914 912 0.9591662343211158
918 912 -0.7798394726401563
924 912 -0.1720938749351482
922 913 -0.6924344615009004
952 913 -0.4667195654164250
965 913 0.1421857356486709
920 914 -0.3830988494521927
924 914 0.8110293893246254
930 914 0.8063905758842738
918 915 -0.2102420117801447
928 915 -0.1754509109775079
927 916 0.0845057527390363
947 916 -0.7463301492355113
960 916 -0.2269661549729911
925 917 -0.4877773369548631
958 917 -0.7310098574785607
973 917 -0.5228125858333079
924 918 0.2129276406140324
928 918 -0.4629352702414015
933 918 -0.8661458174382763
935 919 0.1462141788995026
937 919 -0.8310495315408796
950 919 0.5180516983550523
930 920 0.4289986877040926
931 920 0.1917477950376905
938 920 -0.6940824610126042
927 921 -0.9132053590502640
935 921 0.3809625537888730
945 921 -0.4321726126895963
934 922 0.8607135227515488
965 922 -0.7629322183904538
975 922 -0.1034272286141544
929 923 -0.1089815973387860
931 923 0.9724723044526504
944 923 0.5834833826715904
949 923 0.0355540635395368
930 924 -0.7278969695120090
933 924 0.4389477217932676
939 924 0.3428754539628285
936 925 -0.6843775749992370
973 925 0.6511123996704000
984 925 -0.0391552476577044
932 926 0.8519241920224616
947 926 0.4120303964354382
1011 926 -0.0513626514481033
1026 926 0.9369487594225898
945 927 -0.5692007202368237
960 927 -0.1861934263130589
933 928 -0.6530655842768639
941 928 0.8724326303903318
937 929 0.4086733603930783
949 929 1.0000000000000000
954 929 0.0115054780724508
938 930 0.4633625293740653
939 930 0.1201513718070009
948 930 0.6976226081118198
938 931 -0.4331492049928282
944 931 0.4190496536149175
951 931 0.6885280922879726
981 932 0.7842341380046998
1026 932 0.6390270699179053
1064 932 -0.9147923215430158
939 933 -0.5947141941587573
941 933 -0.6022827845088046
946 933 -0.2236701559495834
942 934 0.9309671315652943
975 934 -0.4791100802636800
987 934 -0.1846675008392590
945 935 -0.9376812036500137
950 935 0.9606311227759636
961 935 -0.7426068910794397
952 936 0.6647236548966948
984 936 -0.2679830317087314
1003 936 -0.8853724784081546
950 937 0.8567461165196693
954 937 0.0298776207770013
966 937 0.1047090060121463
948 938 -0.2787255470442823
951 938 0.4761803033539842
956 938 -0.9863277077547532
946 939 -0.8541215247047335
948 939 0.0607013153477585
953 939 0.7446821497238074
942 940 -0.6794335764641255
982 940 -0.0296334727011933
946 941 -0.8941007721182898
955 941 0.7910702841273232
982 942 0.4202703939939574
987 942 0.5993530075991089
1135 943 0.5014496292001098
1392 943 -0.4420606097598193
1411 943 0.8569902645954772
949 944 0.2839136936552018
951 944 0.8427076021607105
957 944 -0.7869197668385877
962 944 -0.7347331156346324
960 945 0.7073274941251870
961 945 -0.6811426129947813
967 945 0.4708700827051606
953 946 -0.3446455275124363
955 946 0.3789483321634572
959 946 -0.2181768242439039
960 947 0.6364024781029693
1011 947 0.5306253242591632
1024 947 -0.4679403057954650
953 948 -0.6974394970549638
956 948 0.1851557969908750
963 948 0.3994567705313272
954 949 -0.1623889889217811
962 949 0.2790307321390424
969 949 0.6896877956480605
961 950 -0.7557908871730705
966 950 0.2475356303598133
979 950 0.1572008423108615
956 951 -0.0931730094302194
957 951 0.5102389599291970
964 951 -0.7208777123325296
965 952 -0.1722769859920041
1003 952 0.8377636036255989
1017 952 -0.8244575334940641
959 953 -0.9467146824549089
963 953 0.7607959227271339
968 953 0.5725577562791833
966 954 0.4668416394543291
969 954 -0.6006347849971008
978 954 -0.0579546494949187
959 955 -0.2667622913296914
970 955 0.7808160649433882
963 956 -0.6613055818353832
964 956 0.6719260231330302
972 956 0.3263344218268380
962 957 -0.6236457411420027
964 957 0.2596209601123081
971 957 0.2899563585314493
973 958 0.8182317575609608
1004 958 0.3981749931333354
1028 958 0.0966521195104830
968 959 0.8883022553178503
970 959 0.2459486678670613
974 959 -0.2053590502639852
967 960 0.8256172368541521
1000 960 0.0754722739341411
1024 960 0.1753288369396038
967 961 0.6934110538041323
979 961 0.5880001220740378
993 961 -0.1462141788995025
969 962 0.3195593127231666
971 962 -0.2040162358470412
980 962 0.7567064424573504
968 963 0.6721091341898862
972 963 0.6298715170751061
977 963 0.3547166356395153
971 964 -0.7444990386669514
972 964 0.7169713431196021
976 964 -0.3277382732627339
975 965 0.2939848017822810
1017 965 0.4450514236884671
1031 965 -0.4949797051911985
978 966 0.1011078218939787
979 966 -0.9614246040223395
995 966 0.8878749961851864
993 967 -0.1618396557512131
1000 967 -0.9570909756767479
974 968 -0.3882869960631122
977 968 -0.6956083864864040
983 968 -0.8154850917081210
978 969 0.2037110507522812
980 969 -0.4352244636371959
991 969 0.0336619159520248
974 970 0.5480819116794335
985 970 -0.4897915585802789
976 971 -0.6981109042634357
980 971 0.3093661305581836
988 971 -0.1115451521347698
976 972 -0.9003265480513931
977 972 -0.6384777367473373
986 972 0.6657612842188787
984 973 0.1548814355906858
1028 973 -0.5304422132023072
1042 973 -0.7827082125308999
983 974 0.7844172490615557
985 974 0.9949949644459364
989 974 0.5996581926938689
987 975 -0.8388012329477829
1031 975 0.0950041199987792
1038 975 0.2025513473921934
986 976 -0.1404156620990631
988 976 -0.1688589129306924
994 976 -0.5572374645222327
983 977 -0.0343943601794489
986 977 -0.4857631153294473
992 977 0.9454329050569170
991 978 -0.8655354472487564
995 978 -0.0216986602374341
1007 978 -0.3612475966673787
993 979 -0.1928464613788262
995 979 -0.3240760521256142
1010 979 0.4779503769035920
988 980 -0.7437055574205755
991 980 -0.8597369304483169
1001 980 0.5135349589526048
1064 981 -0.7293008209479048
1094 981 -0.4882656331064791
1119 981 0.8202459791863765
987 982 -0.9078951384014404
1034 982 -0.1916867580187384
989 983 -0.3082064271980957
992 983 -0.9382305368205817
996 983 -0.4581743827631458
1003 984 0.3773613696707052
1042 984 -0.0937223426007874
1060 984 -0.3736381115146337
989 985 -0.6940214239936522
997 985 -0.5350810266426588
992 986 -0.7584765160069582
994 986 0.6113162633136997
999 986 -0.9765617847224342
1034 987 -0.6374401074251533
1038 987 -0.8006530961027863
994 988 -0.6165654469435713
1001 988 -0.0229194006164739
1006 988 -0.9296243171483505
996 989 -0.7668996246223334
997 989 -0.7795342875453963
1002 989 0.4209418012024293
1048 990 0.5654164250617999
1059 990 0.1943113498336742
1133 990 0.2209845271156956
1162 990 -0.9008148442030092
1001 991 -0.5052949613940856
1007 991 0.5019379253517258
1015 991 0.0470290231025117
996 992 -0.7308877834406567
999 992 0.3575243385113072
1005 992 0.8466750083925900
1000 993 -0.9390850550859096
1010 993 -0.4603106784264657
1029 993 -0.7621997741630299
999 994 0.2430799279763176
1006 994 -0.5804315317239905
1009 994 0.8398388622699666
1007 995 0.1505478072450941
1010 995 -0.7585985900448622
1022 995 0.6877346110415967
1002 996 -0.1720938749351482
1005 996 0.0628376110110782
1008 996 -0.8871425519577624
1002 997 -0.4665974913785210
1012 997 0.0550859096041749
1159 998 0.6545304727317118
1200 998 0.8191473128452407
1312 998 0.0685750907925657
4694 998 -0.8051087984862819
1005 999 -0.1214941862239448
1009 999 0.5803704947050385
1013 999 0.3955504013183997
1024 1000 -0.3480636005737480
1029 1000 -0.6147953733939635
1050 1000 -0.1473738822595905
1006 1001 -0.0759605700857570
1015 1001 0.8619953001495406
1019 1001 0.8721274452955718
1008 1002 0.5288552507095554
1012 1002 -0.9801629688406018
1014 1002 0.5959959715567491
1017 1003 -0.5778679769280068
1060 1003 -0.8263496810815760
1071 1003 -0.4520096438489944
1028 1004 -0.4198431348612933
1059 1004 0.8924527726065858
1081 1004 -0.8925138096255378
1008 1005 -0.1270485549485764
1013 1005 0.7457197790459913
1016 1005 -0.5836054567094944
1009 1006 0.1493881038850062
1019 1006 0.8782921842097231
1021 1006 -0.5809808648945585
1015 1007 0.0822473830378125
1022 1007 0.8331247901852474
1033 1007 0.5688344981231117
1014 1008 -0.2334360789819026
1016 1008 0.8484450819421980
1020 1008 0.9087496566667683
1013 1009 -0.1833246864223151
1021 1009 -0.1942503128147222
1023 1009 0.7615283669545578
1022 1010 0.9412213507492293
1029 1010 0.8148136844996490
1045 1010 0.2948393200476089
1024 1011 0.5358134708700828
1026 1011 0.8194524979400006
1084 1011 0.7996154667806024
1089 1011 -0.1857661671803950
1014 1012 0.5599230933561206
1025 1012 -0.0120548112430189
1016 1013 0.6062501907406843
1023 1013 -0.6481826227607044
1027 1013 0.3909726248970000
1020 1014 -0.7860042115543077
1025 1014 0.6179082613605151
1030 1014 0.7043977172154912
1019 1015 0.7998596148564103
1033 1015 0.7017731254005555
1044 1015 -0.3277382732627339
1020 1016 0.0080263679921873
1027 1016 0.4293649098178045
1031 1017 0.3669240394299143
1071 1017 -0.5123142185735649
1076 1017 0.7106234931485946
1383 1018 0.1290017395550402
1482 1018 -0.9155247657704397
1631 1018 0.1711172826319163
1021 1019 -0.7030549027985473
1040 1019 -0.9731437116611225
1044 1019 0.7206946012756736
1027 1020 -0.6295052949613941
1030 1020 0.0815759758293404
1035 1020 -0.5966063417462690
1023 1021 -0.2365489669484543
1037 1021 0.6349986266670735
1040 1021 0.3793755912961212
1033 1022 0.4278389843440047
1045 1022 0.3625904110843226
1046 1022 -0.4565874202703940
1027 1023 0.3686330759605700
1037 1023 -0.1797235023041475
1039 1023 -0.4072695089571825
1050 1024 -0.8341013824884793
1084 1024 0.9572740867336040
1088 1024 -0.4972991119113742
1030 1025 0.7513351847895748
1041 1025 -0.5805536057618945
1064 1026 -0.0345774712363048
1089 1026 0.3004547257911923
1109 1026 -0.4954069643238624
1035 1027 -0.1193578905606251
1039 1027 -0.0621051667836543
1042 1028 -0.2437513351847895
1081 1028 0.6934110538041323
1091 1028 0.6180913724173711
1045 1029 -0.1034272286141544
1050 1029 0.1216162602618489
1067 1029 0.6116214484084597
1035 1030 0.6063112277596363
1041 1030 0.3480636005737481
1043 1030 0.5848261970885342
1038 1031 0.5699331644642476
1076 1031 0.2851954710531939
1083 1031 -0.1431623279519029
1051 1032 0.8009582811975464
1172 1032 0.5574205755790886
1211 1032 -0.1745963927121800
1044 1033 0.4978484450819423
1046 1033 -0.2156132694479201
1049 1033 0.8128604998931852
1038 1034 -0.3361613818781091
1075 1034 0.5002288888210700
1039 1035 -0.7721488082522050
1043 1035 0.1189306314279610
1047 1035 0.8713339640491959
1392 1036 -0.6050294503616443
1484 1036 -0.6913357951597644
1599 1036 0.6318247016815699
1039 1037 -0.0858485671559801
1040 1037 -0.0208441419721060
1052 1037 0.0470290231025117
1054 1037 0.0577715384380626
1075 1038 -0.6264534440137943
1083 1038 0.4087343974120303
1047 1039 0.2765282143620105
1052 1039 0.9906613361003449
1044 1040 -0.8162175359355449
1054 1040 0.7332071901608326
1057 1040 -0.7090365306558428
1043 1041 0.2215338602862635
1053 1041 -0.0469069490646077
1060 1042 -0.8161564989165929
1091 1042 -0.7702566606646931
1106 1042 -0.1661732840968048
1047 1043 0.9284646137882626
1053 1043 0.5285500656147955
1055 1043 -0.7369914853358561
1049 1044 0.8957487716299937
1057 1044 0.1677602465895565
1063 1044 -0.1949217200231941
1046 1045 -0.3587450788903470
1067 1045 -0.4368724631488998
1072 1045 -0.5182958464308602
1049 1046 -0.2533341471602527
1068 1046 0.6699728385265664
1072 1046 0.4050721762749108
1052 1047 -0.2927030243842891
1055 1047 -0.7894222846156194
1061 1047 0.6726584673604541
1100 1048 0.7641529587694937
1162 1048 0.8759727774895474
1203 1048 0.9237037263100070
1063 1049 0.0050355540635396
1068 1049 0.9651478621784113
1067 1050 0.8389843440046387
1088 1050 -0.1434064760277108
1097 1050 -0.8180486465041048
1056 1051 0.1828974272896511
1191 1051 0.9121066927091281
1211 1051 0.5394146549882504
1054 1052 0.1807000946073793
1061 1052 0.7839899899288918
1065 1052 0.1026337473677785
1055 1053 0.6312143314920500
1066 1053 0.9817499313333538
1057 1054 0.9523911252174444
1065 1054 0.4803918576616717
1070 1054 -0.9439069795831172
1061 1055 0.4113589892269662
1066 1055 0.4137394329660939
1069 1055 -0.7437665944395275
1094 1056 0.0182805871761222
1191 1056 -0.6535538804284799
1204 1056 -0.9309671315652943
1063 1057 0.1302835169530321
1070 1057 -0.7920468764305552
1074 1057 -0.6537980285042879
1172 1058 -0.6481826227607044
1222 1058 -0.5287942136906034
1323 1058 -0.4881435590685751
1081 1059 0.7708670308542132
1133 1059 0.1195410016174809
1137 1059 -0.1087984862819300
1071 1060 0.5398419141209143
1106 1060 -0.5478377636036256
1113 1060 0.8931852168340098
1065 1061 0.7773369548631244
1069 1061 -0.7199011200292977
1073 1061 -0.0229194006164739
1336 1062 0.2570574053163244
1482 1062 0.3424481948301645
1510 1062 0.1965086825159459
1068 1063 0.6465956602679526
1074 1063 -0.7689748832667013
1079 1063 0.7584154789880062
1109 1064 0.0790734580523087
1119 1064 0.1733146153141880
1143 1064 -0.5720084231086153
1070 1065 0.9337137974181342
1073 1065 -0.0384228034302805
1078 1065 -0.8201239051484726
1069 1066 0.8091372417371137
1077 1066 0.4977263710440383
1072 1067 -0.5827509384441664
1097 1067 0.5607165746024965
1102 1067 0.8487502670369580
1072 1068 -0.4446241645558031
1079 1068 -0.4532303842280343
1087 1068 -0.2311777092806787
1073 1069 -0.0771813104647969
1077 1069 -0.2270882290108951
1082 1069 -0.0306711020233772
1074 1070 -0.9080172124393444
1078 1070 0.7317423017059848
1080 1070 -0.6411633655812250
1076 1071 0.1307718131046480
1113 1071 0.9788811914426099
1117 1071 0.5709707937864315
1087 1072 -0.4983977782525102
1102 1072 0.2402111880855740
1104 1072 0.4787438581499679
1078 1073 0.2623676259651480
1082 1073 0.8268379772331920
1086 1073 0.1483504745628224
1079 1074 -0.1428571428571429
1080 1074 0.5573595385601366
1085 1074 -0.5634022034363841
1083 1075 -0.5207373271889402
1112 1075 -0.5505844294564654
1083 1076 -0.1742912076174200
1117 1076 -0.9064912869655446
1121 1076 -0.6706442457350383
1082 1077 -0.1846064638203070
1093 1077 -0.1578112125003814
1080 1078 -0.8887295144505143
1086 1078 0.8444166386913663
1092 1078 -0.7429120761741996
1085 1079 -0.5173192541276284
1087 1079 0.5152439954832606
1096 1079 0.9882198553422650
1085 1080 -0.2374034852137822
1090 1080 -0.8562578203680532
1092 1080 0.0347605822931607
1091 1081 0.8158513138218328
1137 1081 -0.5625476851710562
1140 1081 -0.3032013916440321
1086 1082 0.4903408917508469
1093 1082 0.5622425000762963
1095 1082 0.4878994109927670
1112 1083 0.7900326548051393
1121 1083 -0.8626056703390607
1088 1084 0.8605304116946928
1089 1084 0.8163396099734488
1115 1084 0.3107089449751275
1125 1084 0.5298928800317393
1090 1085 0.4012268440809350
1096 1085 0.2933744315927611
1099 1085 -0.1799676503799554
1092 1086 -0.5341654713583788
1095 1086 -0.6541032135990479
1098 1086 -0.2323374126407666
1096 1087 -0.2271492660298471
1104 1087 0.5776848658711509
1107 1087 0.8065736869411297
1097 1088 -0.1232032227546007
1115 1088 -0.6643574327829829
1120 1088 0.1287575914792320
1109 1089 -0.2956938383129368
1125 1089 -0.2786645100253303
1139 1089 0.6140018921475876
1092 1090 0.5807367168187505
1099 1090 -0.6801660206915494
1101 1090 0.4646443067720571
1106 1091 0.1030610065004425
1140 1091 -0.5083468123416852
1145 1091 0.8467970824304940
1098 1092 -0.0790124210333567
1101 1092 -0.8265327921384320
1095 1093 -0.6904202398754844
1103 1093 0.2624286629840999
1119 1094 -0.8054139835810419
1187 1094 0.4042786950285349
1204 1094 -0.3773613696707053
1098 1095 -0.1730704672383800
1103 1095 -0.5682851649525438
1105 1095 -0.4236274300363170
1099 1096 0.4286324655903806
1107 1096 0.5240943632312998
1110 1096 -0.2513199255348368
1102 1097 0.1387066255684073
1120 1097 -0.0127262184514908
1123 1097 0.7556688131351665
1101 1098 0.3980529190954314
1105 1098 -0.0405590990936002
1108 1098 -0.1838129825739311
1101 1099 -0.3975646229438154
1110 1099 0.2357554857020783
1111 1099 -0.8251899777214881
1118 1100 0.3943906979583116
1203 1100 -0.0355540635395367
1221 1100 0.5515610217596973
1108 1101 0.9482406079287087
1111 1101 0.1351664784691915
1104 1102 -0.1082491531113621
1123 1102 0.3246864223151342
1130 1102 -0.0483718375194555
1105 1103 -0.8090151676992096
1114 1103 -0.5799432355723746
1107 1104 0.9688711203344829
1128 1104 0.3830378124332408
1130 1104 0.6531266212958160
1108 1105 -0.7779473250526444
1114 1105 -0.3731498153630177
1116 1105 0.3303018280587176
1113 1106 0.7078157902768030
1145 1106 0.3881649220252084
1150 1106 -0.9206518753624073
1110 1107 0.2961821344645528
1126 1107 0.3126621295815912
1128 1107 -0.3517868587298196
1111 1108 -0.6710104678487503
1116 1108 0.6955473494674520
1122 1108 -0.0455641346476638
1139 1109 -0.6523941770683920
1143 1109 0.9230933561204870
1163 1109 0.1379131443220314
1111 1110 0.0517899105807673
1124 1110 0.4891811883907591
1126 1110 -0.9237037263100070
1122 1111 -0.6925565355388044
1124 1111 0.5648670918912320
1121 1112 0.1545152134769738
1146 1112 0.6583147679067354
1117 1113 0.2533951841792046
1150 1113 0.3742484817041536
1154 1113 -0.3834040345469527
1116 1114 -0.8950773644215216
1127 1114 -0.0971404156620991
1120 1115 -0.0074770348216193
1125 1115 0.4561601611377299
1131 1115 -0.6802270577105014
1144 1115 -0.3909115878780480
1122 1116 0.1696523941770685
1127 1116 0.9944456312753684
1129 1116 -0.3751029999694815
1121 1117 -0.4529862361522263
1154 1117 -0.0441602832117679
1155 1117 0.3551438947721792
1200 1118 0.8261055330057681
1221 1118 -0.2306283761101108
1295 1118 0.7839899899288918
1143 1119 0.4675130466628010
1187 1119 -0.5471053193762017
1188 1119 0.7350993377483444
1123 1120 0.1334574419385357
1131 1120 -0.6765037995544297
1138 1120 -0.7623218482009338
1146 1121 -0.8768883327738273
1155 1121 -0.6603289895321512
1124 1122 -0.1989501632740257
1129 1122 -0.1048921170690024
1132 1122 -0.2562639240699485
1130 1123 -0.8906216620380261
1138 1123 -0.6332285531174657
1149 1123 -0.7352214117862483
1126 1124 -0.6398815881832332
1132 1124 -0.6936552018799402
1134 1124 0.9694204535050508
1139 1125 -0.1198461867122410
1144 1125 -0.7674489577929013
1164 1125 0.5687124240852077
1128 1126 0.4379100924710837
1134 1126 0.0250556962797936
1141 1126 0.1978514969328897
1129 1127 0.3207800531022065
1136 1127 0.6951811273537400
1130 1128 0.3416547135837886
1141 1128 -0.9039887691885128
1148 1128 0.7423627430036317
1132 1129 0.1013519699697867
1136 1129 0.0513016144291514
1142 1129 0.3578905606250191
1148 1130 -0.7429120761741996
1149 1130 -0.7617725150303659
1158 1130 -0.1487777336954863
1138 1131 -0.4354686117130039
1144 1131 -0.8970305490279855
1153 1131 -0.5525376140629292
1134 1132 -0.4504837183751945
1142 1132 0.7925962096011230
1147 1132 0.5475325785088656
1137 1133 -0.5648060548722800
1162 1133 -0.4988250373851741
1210 1133 0.5564439832758568
1225 1133 0.3098544267097996
1141 1134 -0.7440107425153355
1147 1134 -0.0932950834681234
1152 1134 0.1614734336375012
1222 1135 -0.2476577043977172
1411 1135 -0.0121768852809229
1423 1135 -0.9625232703634754
1142 1136 -0.7208166753135776
1151 1136 -0.5956907864619891
1140 1137 0.4107486190374463
1196 1137 0.4484694967497787
1210 1137 0.5580309457686086
1149 1138 0.3803521835993531
1153 1138 -0.9974974822229682
1167 1138 0.2424085207678457
1163 1139 0.0812707907345804
1164 1139 0.2552262947477646
1181 1139 0.5629749443037202
1145 1140 0.4469435712759788
1189 1140 -0.5140232551042208
1196 1140 -0.0408642841883602
1148 1141 -0.2206183050019837
1152 1141 -0.4325388348033082
1157 1141 0.5535752433851131
1147 1142 -0.7459639271217994
1151 1142 -0.9538560136722922
1156 1142 0.3786431470686971
1163 1143 0.0862147892696921
1188 1143 -0.6445814386425367
1198 1143 0.8510696737571337
1153 1144 0.0160832544938505
1164 1144 -0.1191747795037691
1177 1144 0.2603534043397320
1150 1145 0.0395825067903683
1189 1145 0.4321726126895962
1192 1145 -0.3870052186651204
1155 1146 -0.6546525467696158
1179 1146 0.2719504379406110
1152 1147 0.2766502883999145
1156 1147 -0.5564439832758568
1160 1147 0.7968077639088107
1157 1148 -0.0174260689107943
1158 1148 0.2662739951780755
1161 1148 0.1607409894100773
1158 1149 0.4347972045045321
1167 1149 0.1572618793298135
1170 1149 -0.8950163274025696
1154 1150 -0.3307290871913816
1192 1150 -0.5049897762993256
1193 1150 -0.7615894039735099
1156 1151 0.0173650318918424
1165 1151 -0.3595385601367229
1157 1152 -0.0703451643421735
1160 1152 -0.5278786584063234
1166 1152 0.9576403088473160
1167 1153 -0.8658406323435164
1177 1153 0.7903988769188512
1182 1153 0.0087588122196112
1155 1154 0.5573595385601366
1190 1154 -0.9935300759910886
1193 1154 0.2562028870509965
1179 1155 -0.9295632801293985
1190 1155 0.8740195928830836
1160 1156 -0.0852992339854122
1165 1156 0.8676717429120762
1169 1156 0.4972380748924223
1161 1157 -0.9982299264503922
1166 1157 -0.2671895504623554
1168 1157 0.5313577684865871
1161 1158 0.9843134861293374
1170 1158 0.6098513748588519
1171 1158 -0.8109073152867214
1312 1159 0.8560136722922453
1336 1159 -0.6761986144596698
1425 1159 -0.5327616199224829
4694 1159 -0.4602496414075137
1166 1160 -0.6169316690572832
1169 1160 -0.0374462111270486
1174 1160 0.0198065126499223
1168 1161 -0.9109469893490402
1171 1161 -0.7253334147160253
1173 1161 0.1888180181279946
1203 1162 -0.9205908383434553
1225 1162 0.3707083346049378
1281 1162 -0.9793694875942259
1181 1163 -0.7396160771507920
1198 1163 -0.3099765007477034
1208 1163 0.8011413922544024
1177 1164 -0.2719504379406110
1181 1164 0.7869197668385877
1202 1164 -0.7691579943235572
1169 1165 0.6183355204931791
1175 1165 0.5549180578020569
1168 1166 0.6780907620471817
1174 1166 0.8214056825464644
1176 1166 0.9183324686422316
1170 1167 -0.1490218817712943
1182 1167 -0.0287789544358653
1183 1167 0.0887173070467238
1173 1168 -0.3986022522659993
1176 1168 0.5685293130283517
1178 1168 0.8500930814539018
1174 1169 0.3617969298379466
1175 1169 0.0417188024536881
1180 1169 -0.4957731864375744
1171 1170 -0.8326364940336314
1183 1170 0.3527024140140995
1185 1170 0.2912991729483931
1173 1171 0.9366435743278299
1184 1171 -0.2157963805047761
1185 1171 -0.6104617450483718
1211 1172 -0.3679006317331461
1320 1172 0.2197027497177038
1323 1172 0.0376293221839046
1178 1173 0.2626728110599079
1184 1173 0.2884304330576495
1176 1174 -0.1033051545762504
1180 1174 -0.3494064149906918
1186 1174 0.7458418530838953
1180 1175 -0.8886074404126103
1194 1175 -0.1043427838984344
1178 1176 0.3948179570909758
1186 1176 -0.1433454390087588
1195 1176 -0.9508651997436445
1182 1177 0.3692434461500900
1202 1177 -0.1792352061525315
1209 1177 -0.0826746421704764
1219 1177 -0.7857600634784997
1184 1178 0.7421796319467757
1195 1178 0.3663747062593463
1197 1178 0.4786828211310159
1190 1179 -0.6381725516525774
1218 1179 -0.4722739341410566
1186 1180 0.1568346201971496
1194 1180 -0.8303170873134555
1199 1180 -0.4103213599047822
1202 1181 0.4764854884487442
1208 1181 0.8087710196234017
1216 1181 -0.4637287514877774
1183 1182 -0.9260841700491348
1207 1182 -0.3806573686941129
1209 1182 0.5503402813806573
1185 1183 0.9296853541673025
1205 1183 0.6524552140873441
1207 1183 0.7680593279824213
1185 1184 -0.0290841395306253
1197 1184 0.5088351084933012
1201 1184 -0.9320047608874783
1201 1185 0.0348826563310647
1205 1185 0.7114780114139225
1195 1186 0.4183172093874936
1199 1186 -0.3152256843775750
1206 1186 0.9343241676076541
1188 1187 0.4090395825067903
1204 1187 0.2046876430555131
1244 1187 -0.5110934781945250
1255 1187 0.6293832209234902
1198 1188 0.2080446790978729
1237 1188 -0.4664754173406170
1244 1188 -0.8120059816278573
1192 1189 0.8853724784081545
1196 1189 0.1499374370555742
1234 1189 -0.7303384502700888
1239 1189 0.2198248237556077
1193 1190 0.2922757652516250
1218 1190 0.7546922208319347
1230 1190 -0.0166936246833704
1204 1191 -0.5160985137485885
1211 1191 -0.6801049836725974
1289 1191 0.1056855983153784
1299 1191 -0.0555742057557909
1193 1192 -0.3910946989349040
1231 1192 0.7676320688497573
1234 1192 0.7517624439222388
1230 1193 -0.3320108645893735
1231 1193 -0.4335154271065401
1199 1194 -0.8297677541428876
1212 1194 -0.2627338480788598
1197 1195 -0.9276711325418867
1206 1195 -0.5536973174230171
1213 1195 -0.2753074739829706
1210 1196 0.0743736075930053
1239 1196 0.3135166478469191
1250 1196 0.2032837916196173
1201 1197 0.2975859859004486
1213 1197 0.9688711203344829
1215 1197 0.3575243385113072
1208 1198 0.1900997955259864
1237 1198 -0.9219946897793512
1238 1198 -0.8881801812799462
1206 1199 0.3540452284310434
1212 1199 -0.7128208258308664
1214 1199 -0.5626697592089602
1295 1200 0.3517868587298196
1312 1200 -0.1275368511001923
1372 1200 0.4432203131199073
1205 1201 0.5579088717307046
1215 1201 0.0561845759453108
1217 1201 -0.9353007599108859
1216 1202 -0.5621204260383923
1219 1202 -0.6054567094943083
1233 1202 -0.5212866603595081
1221 1203 0.8157902768028809
1281 1203 0.6799829096346934
1293 1203 0.5304422132023072
1255 1204 0.4415723136082035
1289 1204 -0.0552690206610309
1308 1204 -0.1466414380321666
1207 1205 -0.5107272560808129
1217 1205 -0.3523972289193396
1223 1205 -0.4798425244911039
1213 1206 -0.7774590289010285
1214 1206 0.0682088686788538
1220 1206 0.9332865382854700
1209 1207 -0.6501358073671681
1223 1207 0.4116031373027742
1227 1207 -0.7483443708609272
1216 1208 0.7758110293893246
1238 1208 0.7101962340159307
1242 1208 0.4675740836817530
1219 1209 0.2703634754478592
1227 1209 -0.6333506271553697
1236 1209 0.3753471480452895
1225 1210 0.0221259193700980
1250 1210 -0.6327402569658498
1270 1210 0.5640736106448561
1299 1211 0.0101016266365550
1320 1211 -0.6372569963682974
1214 1212 0.8329416791283915
1224 1212 -0.9635608996856594
1215 1213 -0.0112613299966430
1220 1213 -0.7726981414227729
1226 1213 -0.1272316660054323
1220 1214 -0.0893276772362438
1224 1214 -0.2983794671468245
1228 1214 0.1332743308816797
1217 1215 -0.1308328501235999
1226 1215 -0.7643971068453017
1229 1215 -0.5871456038087099
1233 1216 -0.9455549790948210
1242 1216 -0.3993346964934232
1243 1216 0.5755485702078311
1223 1217 -0.2684102908413953
1229 1217 -0.7413861507003998
1232 1217 0.9800408948026977
1230 1218 0.0444044312875760
1254 1218 -0.2416760765404218
1233 1219 0.1168553727835933
1236 1219 0.8751792962431715
1247 1219 -0.9058809167760247
1226 1220 -0.0298165837580493
1228 1220 0.6989043855098116
1235 1220 -0.4259468367564928
1293 1221 -0.6305429242835781
1295 1221 0.9066133610034486
1355 1221 -0.0345164342173528
1323 1222 -0.5430158391064180
1423 1222 0.9416486098818935
1440 1222 -0.2816553239539781
1227 1223 -0.6285897396771142
1232 1223 0.4382152775658437
1241 1223 0.2331308938871426
1228 1224 -0.3574633014923552
1240 1224 0.6907864619891964
1270 1225 -0.2607196264534440
1281 1225 0.9470809045686208
1301 1225 0.4657429731131932
1229 1226 0.8774987029633472
1235 1226 0.5578478347117526
1245 1226 0.3120517593920713
1236 1227 -0.9623401593066194
1241 1227 0.7739188818018128
1251 1227 -0.8077333903012177
1235 1228 -0.0429395428327281
1240 1228 -0.1013519699697867
1249 1228 -0.5212256233405561
1232 1229 -0.8129215369121372
1245 1229 -0.2734153263954588
1248 1229 -0.9176000244148076
1231 1230 -0.8113956114383374
1254 1230 0.0591143528550067
1268 1230 -0.2495498519852291
1234 1231 -0.8424634540849025
1268 1231 0.3238319040498061
1275 1231 -0.8307443464461196
1241 1232 -0.9202856532486954
1248 1232 0.5693838312936796
1252 1232 -0.2474745933408612
1243 1233 0.3007599108859522
1247 1233 0.2018189031647695
1259 1233 -0.6547746208075198
1239 1234 -0.0752281258583331
1275 1234 -0.4930265205847346
1282 1234 -0.2537003692739647
1245 1235 0.2258674886318552
1249 1235 -0.2710959196752830
1253 1235 -0.2084109012115848
1247 1236 0.6956694235053560
1251 1236 -0.7155674916837061
1260 1236 0.8838465529343547
1238 1237 -0.8172551652577288
1244 1237 0.4116641743217262
1267 1237 -0.9030732139042329
1274 1237 0.6781517990661337
1242 1238 -0.2352671895504623
1267 1238 -0.2092043824579608
1269 1238 0.5256202887050996
1250 1239 0.8699301126132999
1282 1239 0.2290414136173589
1288 1239 -0.1387066255684073
1249 1240 0.1780144657734917
1257 1240 -0.4409619434186834
1251 1241 -0.4927823725089266
1252 1241 -0.8660237434003724
1256 1241 -0.3952452162236396
1243 1242 -0.1550645466475418
1264 1242 0.0486770226142155
1269 1242 0.0195013275551621
1259 1243 -0.7022614215521714
1264 1243 0.0811487166966764
1255 1244 0.3052156132694479
1274 1244 -0.3757133701590014
1283 1244 -0.4485305337687308
1248 1245 -0.4590899380474258
1253 1245 0.9851680043946653
1258 1245 -0.7615283669545579
1718 1246 -0.7491378521073031
1793 1246 0.3053376873073519
1813 1246 0.6395764030884732
1259 1247 -0.1730094302194281
1260 1247 0.6464735862300486
1266 1247 -0.8140202032532731
1252 1248 -0.8571123386333812
1258 1248 -0.1623889889217811
1261 1248 -0.8189642017883847
1253 1249 0.4961394085512865
1257 1249 0.6310312204351940
1262 1249 0.6376842555009614
1270 1250 0.4294259468367565
1288 1250 -0.5187841425824763
1298 1250 0.4579302346873380
1256 1251 -0.1076998199407941
1260 1251 -0.7864314706869716
1263 1251 -0.7771538438062685
1256 1252 -0.2645039216284677
1261 1252 0.1963866084780419
1265 1252 0.9569689016388438
1258 1253 0.8272041993469039
1262 1253 0.0174260689107943
1272 1253 -0.7269203772087771
1268 1254 0.3382976775414288
1291 1254 -0.2885525070955535
1283 1255 -0.3104647968993194
1308 1255 -0.9485457930234688
1318 1255 -0.6898098696859645
1263 1256 -0.1995605334635456
1265 1256 0.6308481093783380
1273 1256 -0.0651570177312540
1262 1257 -0.4576860866115299
1276 1257 0.4457838679158910
1261 1258 0.7054353465376750
1272 1258 -0.4260689107943968
1277 1258 -0.6469618823816645
1264 1259 -0.1198461867122410
1266 1259 0.6497695852534562
1286 1259 0.4556718649861140
1263 1260 0.1928464613788263
1266 1260 0.0193792535172581
1278 1260 0.9165013580736716
1265 1261 -0.3787041840876492
1277 1261 0.7394940031128880
1279 1261 0.4246650593585009
1272 1262 -0.9617908261360515
1276 1262 0.8259834589678641
1280 1262 -0.3298745689260536
1273 1263 0.2370372631000701
1278 1263 -0.9273049104281746
1285 1263 0.4517044587542345
1269 1264 -0.8285470137638478
1286 1264 -0.1020844141972106
1296 1264 -0.3067415387432478
1273 1265 -0.5124362926114688
1279 1265 0.2501602221747490
1284 1265 -0.5337992492446668
1278 1266 0.4857020783104953
1286 1266 0.8880581072420424
1306 1266 -0.0929288613544115
1269 1267 -0.6536759544663839
1274 1267 -0.9850459303567614
1302 1267 0.6230353709524827
1304 1267 -0.7626880703146458
1275 1268 0.2386242255928221
1291 1268 0.2241584521011994
1309 1268 -0.2681051057466354
1296 1269 0.5180516983550523
1302 1269 0.1249732963042085
1298 1270 0.7271645252845851
1301 1270 -0.3060090945158238
1316 1270 0.3476363414410839
1484 1271 -0.8980681783501694
1707 1271 -0.4407788323618275
1718 1271 0.4276558732871487
1277 1272 0.8977019562364574
1280 1272 -0.1255836664937284
1287 1272 -0.0529496139408552
1284 1273 -0.7689138462477493
1285 1273 0.3411053804132207
1283 1274 0.7213660084841456
1304 1274 -0.3401898251289407
1310 1274 -0.0232856227301859
1282 1275 0.5184789574877162
1309 1275 0.7471846675008393
1314 1275 0.5063325907162695
1280 1276 0.8724936674092838
1292 1276 0.9048432874538408
1279 1277 0.2307504501480149
1287 1277 0.5377056184575946
1294 1277 0.1013519699697867
1285 1278 0.9402447584459974
1305 1278 -0.1157567064424574
1306 1278 -0.4791100802636800
1284 1279 -0.3470259712515641
1294 1279 -0.2143314920499283
1297 1279 -0.1651966917935728
1287 1280 -0.7569505905331584
1292 1280 0.6587420270393993
1300 1280 -0.4323557237464523
1293 1281 0.1416974394970549
1301 1281 -0.7885067293313395
1342 1281 0.5433820612201301
1344 1281 -0.8268379772331920
1288 1282 -0.3396404919583728
1314 1282 -0.6902371288186284
1322 1282 -0.6946928312021241
1310 1283 0.6583758049256874
1318 1283 -0.9326151310769982
1285 1284 -0.0260933256019776
1297 1284 -0.7609179967650380
1303 1284 -0.6676534318063906
1303 1285 0.8578447828608051
1305 1285 -0.5494857631153294
1296 1286 -0.5894650105288858
1306 1286 -0.4196600238044373
1319 1286 0.1272927030243842
1294 1287 0.6992706076235238
1300 1287 -0.8004089480269784
1307 1287 -0.5135959959715568
1298 1288 0.9527573473311564
1322 1288 -0.4976042970061342
1329 1288 0.2211066011535996
1299 1289 0.3202307199316385
1308 1289 0.1821649830622272
1357 1289 0.3442793053987243
1361 1289 0.9374370555742058
1588 1290 -0.0504470961638234
1749 1290 -0.5522934659871213
1950 1290 -0.3779107028412733
1309 1291 -0.7250892666402173
1328 1291 0.2406994842371899
1300 1292 -0.7860042115543077
1311 1292 0.7518234809411908
1344 1293 -0.4430372020630512
1355 1293 -0.4900357066560869
1388 1293 -0.3264564958647420
1297 1294 0.7310098574785608
1307 1294 -0.9346903897213660
1313 1294 0.0884731589709158
1355 1295 0.3029572435682242
1372 1295 0.7209387493514816
1415 1295 0.5438093203527941
1302 1296 0.0625324259163182
1319 1296 0.8911099581896420
1325 1296 0.2109134189886166
1303 1297 -0.0451368755149999
1313 1297 -0.7477340006714073
1315 1297 -0.1467024750511186
1316 1298 -0.6727195043794061
1329 1298 -0.1963866084780419
1335 1298 0.4915616321298868
1320 1299 0.6425061799981688
1361 1299 0.8491164891506700
1375 1299 -0.6603289895321512
1307 1300 0.2703024384289072
1311 1300 0.0707113864558855
1317 1300 0.4935148167363506
1316 1301 -0.0485549485763115
1339 1301 -0.1963255714590899
1342 1301 -0.6468398083437605
1304 1302 -0.9664906765953550
1325 1302 -0.9366435743278299
1332 1302 0.5883663441877498
1305 1303 -0.3119296853541673
1315 1303 0.8095034638508256
1321 1303 0.8505813776055178
1310 1304 -0.4893032624286630
1332 1304 -0.8169499801629688
1337 1304 0.1984618671224097
1306 1305 -0.9188207647938474
1321 1305 -0.4325998718222602
1326 1305 0.9428083132419813
1319 1306 0.6025879696035645
1326 1306 0.4015320291756950
1330 1306 -0.7376018555253762
1313 1307 -0.8717001861629078
1317 1307 -0.4803918576616718
1324 1307 -0.6262092959379864
1318 1308 0.7416913357951598
1356 1308 0.8026673177282022
1357 1308 0.2580950346385082
1314 1309 -0.4186223944822535
1328 1309 -0.2707907345805231
1343 1309 0.3727835932493058
1318 1310 -0.1406598101748711
1337 1310 0.1118503372295296
1347 1310 -0.6739402447584459
1317 1311 0.4429151280251473
1327 1311 -0.2106082338938566
1372 1312 -0.2673726615192114
1425 1312 0.7352214117862483
1450 1312 -0.1103854487746818
1315 1313 0.9622791222876674
1324 1313 0.0695516830957976
1331 1313 0.9745475630970184
1322 1314 0.9726554155095064
1343 1314 -0.3415936765648365
1353 1314 0.1023285622730186
1321 1315 0.6407971434675130
1331 1315 0.2929471724600969
1334 1315 -0.0998870815149389
1335 1316 -0.7111117893002106
1339 1316 -0.2129276406140325
1351 1316 -0.5887936033204137
1324 1317 0.8460036011841181
1327 1317 -0.3688772240363780
1333 1317 0.9755851924192023
1347 1318 -0.0608233893856625
1356 1318 0.7677541428876613
1325 1319 -0.0059511093478195
1330 1319 -0.4314401684621723
1338 1319 0.9152195806756798
1323 1320 0.1717886898403882
1375 1320 0.9923703726310007
1389 1320 0.3211462752159184
1326 1321 -0.7212439344462416
1334 1321 -0.3724784081545457
1340 1321 -0.2451551866206855
1329 1322 0.3357341227454451
1353 1322 -0.7456587420270394
1360 1322 0.8651692251350445
1389 1323 0.8810388500625630
1440 1323 -0.5560777611621448
1459 1323 -0.5421002838221382
1331 1324 0.7056184575945310
1333 1324 0.9012421033356730
1341 1324 0.0753501998962371
1332 1325 -0.4612262337107456
1338 1325 0.3851130710776085
1354 1325 0.5530259102145452
1330 1326 -0.3220007934812463
1340 1326 -0.8304391613513595
1348 1326 -0.1634876552629170
1333 1327 0.1871089815973388
1345 1327 -0.2481460005493332
1343 1328 -0.8048036133915220
1362 1328 -0.5094454786828211
1335 1329 0.6140018921475876
1360 1329 0.5579088717307046
1366 1329 -0.2443006683553576
1338 1330 -0.8411816766869106
1346 1330 0.7048249763481551
1348 1330 -0.4344920194097720
1334 1331 -0.8065736869411297
1341 1331 0.5611438337351604
1349 1331 0.0585650196844385
1337 1332 0.7012848292489395
1354 1332 0.5583361308633685
1368 1332 -0.9396954252754296
1341 1333 0.0484939115573595
1345 1333 0.4598834192938017
1350 1333 -0.4768517105624561
1340 1334 -0.8333689382610553
1349 1334 -0.4407177953428755
1352 1334 -0.0580156865138707
1351 1335 0.5213476973784601
1366 1335 -0.6265144810327463
1373 1335 0.7288735618152409
1425 1336 0.8796349986266672
1510 1336 0.9203466902676474
1542 1336 0.8883632923368023
1347 1337 -0.9942014831995606
1368 1337 0.7127597888119144
1378 1337 0.0420239875484480
1346 1338 -0.1794183172093875
1354 1338 0.8367870113223670
1364 1338 0.7786797692800684
1342 1339 0.8439893795587023
1351 1339 -0.6114993743705557
1371 1339 -0.7061067537461471
1348 1340 0.6778466139713737
1352 1340 -0.9274880214850306
1358 1340 -0.2909329508346812
1349 1341 0.9576403088473160
1350 1341 0.8775597399822992
1359 1341 -0.2977080599383526
1344 1342 -0.2688375499740593
1371 1342 0.3644825586718345
1377 1342 0.6162602618488113
1353 1343 -0.5284279915768915
1362 1343 0.8770714438306833
1380 1343 -0.6649678029725028
1377 1344 -0.8284249397259438
1388 1344 -0.6702169866023744
1403 1344 0.9522080141605884
1350 1345 -0.5074922940763573
1363 1345 -0.4459059419537950
1348 1346 -0.3940855128635518
1364 1346 -0.1117282631916258
1365 1346 -0.7146519363994263
1356 1347 0.6887112033448286
1378 1347 -0.2865993224890896
1406 1347 -0.1203344828638570
1358 1348 -0.1734366893520920
1365 1348 -0.8522904141361736
1352 1349 -0.7982116153447065
1359 1349 -0.5222022156437880
1367 1349 0.8614459669789727
1359 1350 0.4968108157597584
1363 1350 -0.0307321390423292
1370 1350 0.2043824579607532
1371 1351 -0.8226874599444562
1373 1351 -0.6835840937528611
1382 1351 0.4469435712759788
1358 1352 -0.7529221472823268
1367 1352 0.7667165135654774
1369 1352 -0.0378734702597125
1360 1353 -0.4307687612537003
1380 1353 0.7997985778374583
1387 1353 -0.9429914242988372
1364 1354 -0.8748741111484115
1368 1354 -0.6586199530014953
1390 1354 -0.3906674398022401
1388 1355 0.5193334757530441
1415 1355 0.2566911832026124
1448 1355 -0.1826532792138432
1357 1356 -0.7074495681630909
1399 1356 -0.0317087313455611
1406 1356 0.9175389873958555
1361 1357 -0.7000640888698996
1399 1357 0.9848017822809534
1408 1357 0.8662678914761803
1365 1358 -0.8837244788964507
1369 1358 -0.4233222449415570
1374 1358 0.8830530716879788
1367 1359 0.9433576464125493
1370 1359 -0.3016144291512802
1376 1359 -0.9970702230903042
1366 1360 0.2461928159428695
1387 1360 0.4471877193517868
1395 1360 0.8482619708853421
1375 1361 -0.7545091097750786
1408 1361 0.4151432844019898
1428 1361 -0.6670430616168707
1380 1362 -0.2329477828302866
1397 1362 0.4983977782525102
1370 1363 0.4139835810419019
1381 1363 0.7087313455610829
1365 1364 -0.4107486190374462
1379 1364 0.9841914120914335
1390 1364 -0.3030793176061282
1393 1364 0.8457594531083101
1374 1365 0.5995971556749169
1379 1365 -0.4470046082949308
1373 1366 -0.3985412152470473
1395 1366 -0.9314554277169103
1400 1366 -0.1868648335215308
1369 1367 -0.8085268715475936
1376 1367 0.0710776085695974
1384 1367 -0.1633045442060610
1378 1368 -0.0181585131382184
1390 1368 0.2543717764824367
1401 1368 -0.7896053956724753
1374 1369 0.3292641987365337
1384 1369 0.0886562700277718
1385 1369 -0.7686696981719413
1376 1370 0.2347788933988464
1381 1370 -0.1530503250221259
1386 1370 0.3925595873897518
1377 1371 -0.1380962553788873
1382 1371 -0.6237678151799066
1394 1371 0.3424481948301645
1415 1372 0.0873744926297799
1450 1372 0.4094668416394542
1470 1372 -0.6896877956480605
1382 1373 0.3923154393139439
1400 1373 0.6357310708944974
1404 1373 -0.0909756767479476
1379 1374 -0.3367107150486770
1385 1374 -0.0771202734458449
1391 1374 0.8415478988006226
1389 1375 -0.8004699850459304
1428 1375 -0.8345896786400953
1439 1375 0.0025330362865077
1384 1376 0.7235633411664175
1386 1376 -0.4459059419537950
1396 1376 -0.9898678548539689
1394 1377 -0.9874263740958892
1403 1377 0.2516861476485488
1417 1377 0.7201452681051057
1401 1378 -0.0165105136265145
1406 1378 -0.4896694845423749
1421 1378 0.0094302194280831
1391 1379 -0.8175603503524888
1393 1379 0.9250465407269508
1387 1380 -0.9051484725486008
1397 1380 -0.1554307687612537
1410 1380 0.4612262337107456
1386 1381 -0.9161961729789116
1398 1381 -0.4094668416394543
1394 1382 0.5705435346537675
1404 1382 0.2577288125247963
1413 1382 -0.0690633869441817
1631 1383 -0.1416974394970549
1749 1383 0.7811212500381481
1826 1383 0.2604754783776360
1385 1384 0.9920651875362407
1396 1384 0.5490585039826654
1402 1384 -0.1591540269173254
1391 1385 -0.5764641254921110
1402 1385 -0.7387615588854640
1407 1385 0.1107516708883938
1396 1386 -0.8861049226355785
1398 1386 0.5303201391644032
1405 1386 0.7604297006134220
1395 1387 0.3619190038758506
1410 1387 0.4936979277932065
1418 1387 0.8549760429700612
1403 1388 -0.1952879421369060
1445 1388 0.9437849055452132
1448 1388 0.2953886532181769
1439 1389 0.7340006714072085
1459 1389 0.5381328775902585
1393 1390 0.9643543809320352
1401 1390 -0.4251533555101169
1414 1390 0.8601641895809808
1422 1390 0.3009430219428084
1393 1391 -0.8539384136478774
1407 1391 0.9353617969298380
1409 1391 0.1122775963621936
1411 1392 -0.6083864864040041
1599 1392 0.7899716177861873
1651 1392 0.8851893673512985
1704 1392 0.7319254127628407
1409 1393 0.7858211004974518
1414 1393 0.8683431501205481
1413 1394 -0.1911984618671224
1417 1394 0.6603900265511033
1400 1395 0.3747978148747215
1418 1395 -0.4403515732291635
1426 1395 0.6133915219580677
1402 1396 -0.1509750663777581
1405 1396 -0.7136143070772423
1412 1396 -0.4634235663930174
1410 1397 0.1139866328928496
1427 1397 0.3539231543931394
1405 1398 0.8496047853022859
1416 1398 -0.6791894283883175
1406 1399 0.2190923795281838
1408 1399 -0.9716177861873226
1429 1399 -0.2331919309060946
1451 1399 0.0166936246833704
1404 1400 0.9800408948026977
1426 1400 0.6260261848811304
1432 1400 0.0558183538315988
1421 1401 -0.2637714774010438
1422 1401 0.5654164250617999
1435 1401 0.1258888515884884
1407 1402 -0.6769310586870938
1412 1402 -0.9718008972441786
1419 1402 0.2247077852717674
1417 1403 0.0934171575060274
1445 1403 -0.0679036835840937
1446 1403 -0.3767509994811853
1413 1404 -0.6982329783013397
1432 1404 -0.1116672261726738
1434 1404 0.6287118137150181
1412 1405 -0.1914426099429304
1416 1405 0.3623462630085146
1420 1405 0.5334330271309549
1421 1406 -0.8143253883480330
1429 1406 0.7429731131931516
1443 1406 -0.5031586657307657
1409 1407 0.0551469466231269
1419 1407 -0.3701590014343700
1424 1407 -0.9730216376232185
1428 1408 -0.1382793664357432
1451 1408 -0.8897061067537462
1474 1408 0.6130252998443555
1414 1409 -0.1612292855616931
1424 1409 -0.4786828211310160
1431 1409 -0.2904446546830652
1418 1410 0.4907071138645589
1427 1410 -0.0512405774101993
1441 1410 -0.3464156010620442
1423 1411 0.8518021179845576
1590 1411 -0.3301797540208137
1651 1411 0.9262062440870389
1419 1412 0.1807611316263313
1420 1412 -0.1195410016174810
1430 1412 -0.2112186040833766
1417 1413 -0.1508529923398542
1434 1413 0.8889126255073703
1444 1413 -0.6243171483504746
1422 1414 0.2917264320810571
1431 1414 -0.1686758018738365
1437 1414 -0.9018524735251930
1448 1415 0.3937192907498397
1470 1415 -0.0397656178472243
1493 1415 -0.3225501266518144
1420 1416 -0.0538651692251351
1433 1416 -0.1335184789574877
1444 1417 -0.0356761375774407
1446 1417 0.9802240058595537
1426 1418 0.3471480452894680
1441 1418 0.9740592669454025
1452 1418 -0.0047303689687795
1424 1419 -0.0289010284737693
1430 1419 0.6896267586291085
1436 1419 0.3019196142460403
1430 1420 0.0434888760032961
1433 1420 0.4377269814142277
1438 1420 -0.6655171361430707
1435 1421 0.5963621936704611
1443 1421 -0.6168706320383313
1455 1421 -0.9802240058595538
1435 1422 -0.0231635486922819
1437 1422 0.9294412060914945
1449 1422 -0.6740012817773979
1440 1423 -0.8032166508987701
1556 1423 0.9331644642475661
1590 1423 -0.9127780999176001
1431 1424 -0.6921292764061403
1436 1424 -0.7206335642567216
1442 1424 0.4167912839136936
1450 1425 -0.0071718497268594
1539 1425 0.8694418164616839
1542 1425 0.7173375652333140
1432 1426 0.8647419660023805
1452 1426 0.9769280068361461
1458 1426 -0.9066133610034486
1441 1427 0.0361033967101048
1457 1427 0.3771172215948972
1439 1428 -0.2911770989104893
1474 1428 0.0625934629352702
1502 1428 0.7153843806268503
1443 1429 0.3327433088167975
1451 1429 -0.3997619556260872
1464 1429 -0.1012909329508347
1436 1430 0.3206579790643025
1438 1430 -0.7573168126468703
1447 1430 0.4936979277932065
1437 1431 -0.0538041322061831
1442 1431 -0.7978453932309946
1453 1431 -0.0948210089419232
1434 1432 -0.5511947996459853
1458 1432 -0.3366496780297250
1463 1432 0.0719931638538773
1438 1433 -0.0771202734458449
1454 1433 -0.5605334635456405
1444 1434 -0.2174443800164800
1463 1434 0.7731254005554369
1468 1434 0.6472060304574725
1449 1435 0.7722098452711570
1455 1435 -0.6971953489791558
1465 1435 -0.4482253486739708
1442 1436 0.6095461897640919
1447 1436 -0.9589831232642598
1456 1436 0.8765221106601153
1449 1437 -0.8530838953825495
1453 1437 0.5042573320719017
1461 1437 0.4294869838557085
1447 1438 0.1535996581926939
1454 1438 -0.9919431134983367
1460 1438 -0.2153691213721122
1459 1439 0.1723380230109561
1502 1439 -0.3548387096774194
1543 1439 -0.0452589495529039
1459 1440 -0.0654011658070620
1549 1440 0.9910275582140569
1556 1440 0.6688131351664786
1452 1441 0.5897701956236456
1457 1441 0.4785607470931119
1475 1441 -0.6870021668141728
1453 1442 -0.0612506485183264
1456 1442 -0.2209845271156957
1462 1442 0.7924130985442670
1455 1443 0.0899380474257638
1464 1443 0.3630787072359385
1473 1443 0.5102389599291970
1446 1444 -0.2226325266273995
1468 1444 0.0249946592608417
1478 1444 0.6104007080294198
1446 1445 -0.5572985015411847
1448 1445 0.4602496414075137
1485 1445 0.0235908078249458
1499 1445 -0.9916379284035768
1478 1446 -0.5382549516281625
1485 1446 -0.4190496536149174
1456 1447 0.6790673543504135
1460 1447 0.3370159001434370
1467 1447 -0.4515823847163305
1493 1448 -0.7679372539445173
1499 1448 -0.3946348460341197
1518 1448 -0.9211401715140233
1461 1449 -0.7206335642567216
1465 1449 0.6106448561052278
1472 1449 0.4313180944242683
1470 1450 -0.3109530930509354
1537 1450 0.2671895504623554
1539 1450 0.9462263863032929
1464 1451 0.2658467360454115
1474 1451 -0.5533921323282571
1496 1451 -0.1449324015015107
1458 1452 -0.3328653828547014
1475 1452 -0.5500961333048494
1483 1452 0.4513382366405225
1461 1453 -0.6222418897061068
1462 1453 0.8677938169499801
1469 1453 0.4048280281991028
1460 1454 0.3265785699026460
1471 1454 0.3016754661702323
1465 1455 0.1384624774925993
1473 1455 -0.6084475234229560
1481 1455 0.1927854243598743
1462 1456 0.5558336130863368
1467 1456 0.8218939786980803
1476 1456 -0.0075380718405713
1475 1457 -0.5280617694631794
1489 1457 0.3671681875057222
1463 1458 -0.2427137058626057
1483 1458 0.1279641102328561
1490 1458 0.0873134556108279
1543 1459 -0.0874965666676839
1549 1459 -0.4239936521500290
1467 1460 -0.5788445692312387
1471 1460 -0.3802301095614490
1479 1460 0.0984832300790430
1469 1461 -0.3905453657643361
1472 1461 0.7225257118442334
1477 1461 -0.0161442915128025
1469 1462 0.7840510269478438
1476 1462 0.4734946745200965
1480 1462 0.6069826349681082
1468 1463 -0.8141422772911771
1490 1463 -0.2442396313364056
1495 1463 0.3910336619159520
1473 1464 0.6567888424329356
1496 1464 0.7266151921140171
1500 1464 0.7705008087405012
1472 1465 0.3154087954344309
1481 1465 0.3412274544511247
1486 1465 0.2105471968749046
1571 1466 -0.0237739188818018
1588 1466 -0.0832850123599963
2071 1466 -0.6928006836146123
4210 1466 -0.2745750297555467
1476 1467 -0.9751579332865383
1479 1467 -0.5056611835077975
1488 1467 -0.1080050050355541
1478 1468 -0.4466383861812189
1495 1468 0.1885128330332346
1501 1468 -0.1225928525650807
1477 1469 -0.3285317545091098
1480 1469 -0.2236091189306314
1487 1469 -0.2076174199652089
1493 1470 -0.6235236671040987
1537 1470 0.8558305612353894
1548 1470 -0.6608783227027192
1479 1471 -0.7235023041474654
1491 1471 -0.1520126956999420
1477 1472 0.3452558977019562
1486 1472 -0.8684652241584521
1492 1472 0.1991332743308816
1481 1473 0.9348735007782221
1500 1473 -0.7410199285866879
1503 1473 0.6526383251442001
1496 1474 0.4935148167363506
1502 1474 0.5452131717886899
1538 1474 -0.2514419995727408
1554 1474 0.8198187200537126
1483 1475 0.2914822840052491
1489 1475 0.6318857387005219
1506 1475 -0.0905484176152836
1480 1476 0.4842371898556475
1488 1476 0.6261482589190344
1494 1476 0.3353679006317332
1487 1477 0.6025879696035645
1492 1477 -0.7832575457014679
1485 1478 -0.6749168370616779
1501 1478 -0.4476760155034029
1511 1478 0.9982299264503922
1488 1479 -0.0749229407635731
1491 1479 -0.5913571581163977
1497 1479 0.9925534836878567
1487 1480 0.6559343241676077
1494 1480 -0.1344340342417676
1498 1480 0.3038117618335521
1486 1481 -0.2137821588793604
1503 1481 0.9508651997436446
1505 1481 -0.3874324777977843
1510 1482 -0.8130436109500412
1631 1482 0.7056794946134830
1691 1482 -0.3386028626361889
1767 1482 0.5467390972624897
1490 1483 0.7688528092287972
1506 1483 0.0613116855372784
1512 1483 -0.4709921567430647
1599 1484 0.4255195776238287
1707 1484 0.8324533829767755
1741 1484 0.3371379741813409
1499 1485 0.6027710806604205
1511 1485 -0.4015320291756951
1520 1485 -0.1621448408459731
1492 1486 0.6262703329569383
1505 1486 -0.8177434614093447
1508 1486 -0.5706045716727195
1492 1487 -0.0938444166386914
1498 1487 0.9300515762810144
1504 1487 -0.8294015320291757
1494 1488 -0.5124362926114688
1497 1488 -0.5060274056215095
1507 1488 -0.6168706320383313
1506 1489 0.6494644001586962
1516 1489 -0.9281594286935027
1495 1490 -0.9269997253334147
1512 1490 0.4663533433027132
1517 1490 -0.5102389599291970
1497 1491 -0.3710745567186499
1509 1491 0.1249732963042085
1504 1492 -0.7294228949858088
1508 1492 0.8102359080782495
1518 1493 -0.3719901120029298
1548 1493 0.7659230323191015
1557 1493 -0.1256447035126804
1498 1494 0.0953093050935392
1507 1494 0.4564043092135379
1513 1494 0.3119907223731193
1501 1495 0.8963591418195136
1517 1495 0.7866756187627797
1522 1495 0.8956266975920897
1500 1496 0.0992156743064669
1531 1496 0.2869045075838497
1538 1496 0.1592150639362773
1507 1497 0.7430341502121036
1509 1497 0.8690755943479720
1514 1497 0.4200872829371014
1504 1498 0.2949003570665609
1513 1498 -0.8597979674672689
1515 1498 0.0336008789330728
1518 1499 -0.4511551255836664
1520 1499 -0.0329905087435529
1533 1499 0.1710562456129643
1503 1500 -0.8682821131015961
1526 1500 0.6863917966246529
1531 1500 0.2466200750755334
1511 1501 -0.7088534195989868
1522 1501 0.7896053956724753
1527 1501 -0.0248115482039857
1543 1502 -0.3555711539048433
1554 1502 -0.8472853785821101
1577 1502 -0.5034028138065737
1505 1503 -0.3925595873897518
1524 1503 -0.3995178075502792
1526 1503 0.3860286263618884
1508 1504 -0.4882045960875271
1515 1504 -0.6415295876949370
1519 1504 0.1337015900143437
1508 1505 -0.0998260444959869
1523 1505 0.2099368266853847
1524 1505 -0.2041383098849452
1512 1506 0.4640949736014892
1516 1506 0.2665181432538835
1530 1506 0.1830195013275551
1513 1507 -0.7730033265175329
1514 1507 0.4203924680318614
1521 1507 0.7459028901028473
1519 1508 0.4069643238624225
1523 1508 -0.5525376140629292
1514 1509 -0.5549180578020569
1525 1509 -0.4764244514297922
1542 1510 -0.2117679372539445
1671 1510 0.3525193029572435
1691 1510 -0.9902340769676810
1520 1511 -0.2869045075838496
1527 1511 -0.5991088595233010
1540 1511 0.4742881557664724
1517 1512 -0.7470015564439833
1530 1512 0.6928006836146123
1534 1512 0.7286294137394329
1515 1513 -0.4921720023194067
1521 1513 -0.3465376750999482
1528 1513 -0.6639912106692709
1521 1514 0.2220221564378795
1525 1514 -0.1129490035706656
1529 1514 0.5507065034943692
1519 1515 0.6995147556993317
1528 1515 -0.5142674031800287
1532 1515 -0.5251319925534836
1530 1516 -0.6740623187963499
1544 1516 0.7300943021942807
1522 1517 -0.5934324167607654
1534 1517 0.4283272804956206
1546 1517 0.0559404278695028
1533 1518 0.5543687246314890
1557 1518 -0.4645222327341533
1560 1518 0.3025299844355602
1523 1519 0.4513382366405225
1532 1519 0.9124118778038881
1535 1519 -0.9638660847804194
1533 1520 0.4550614947965941
1540 1520 0.8931241798150578
1558 1520 0.2985625782036805
1528 1521 0.5123752555925170
1529 1521 -0.1859492782372509
1536 1521 -0.6205328531754509
1527 1522 -0.6280404065065462
1546 1522 -0.9734488967558824
1552 1522 -0.9284035767693106
1524 1523 -0.8054750205999939
1535 1523 -0.8009582811975463
1545 1523 -0.3769341105380413
1526 1524 -0.6345103305154576
1545 1524 -0.8869594409009064
1547 1524 -0.1098361156041139
1529 1525 -0.3332316049684133
1541 1525 0.5123752555925170
1531 1526 0.9522690511795404
1547 1526 -0.8060853907895138
1555 1526 -0.6887722403637806
1540 1527 0.8530838953825495
1552 1527 0.2838526566362498
1559 1527 -0.3893856624042482
1532 1528 0.4081850642414624
1536 1528 -0.2252571184423353
1550 1528 -0.8807336649678030
1536 1529 -0.4122135074922941
1541 1529 -0.8291573839533677
1551 1529 0.9708853419598986
1534 1530 0.3793145542771692
1544 1530 -0.6398815881832332
1563 1530 0.9036225470748009
1538 1531 -0.4981536301767022
1555 1531 0.9617297891170995
1566 1531 0.9970091860713524
1535 1532 0.1107516708883938
1550 1532 0.7192907498397778
1553 1532 -0.7808771019623402
1558 1533 -0.7814874721518601
1560 1533 0.2963652455214087
1561 1533 0.1154515213476974
1546 1534 -0.3403729361857967
1563 1534 0.5449079866939299
1569 1534 0.7684255500961332
1545 1535 0.1620838038270211
1553 1535 0.6819971312601092
1564 1535 -0.6609393597216712
1550 1536 0.7592089602343821
1551 1536 -0.8014465773491622
1562 1536 0.1591540269173253
1539 1537 0.3073519089327676
1548 1537 0.1743522446363719
1596 1537 0.4347972045045321
1620 1537 0.6817529831843012
1554 1538 0.0189519943845942
1566 1538 -0.7163609729300822
1580 1538 0.1285134434034241
1542 1539 -0.7261879329813532
1620 1539 -0.9921262245551927
1648 1539 0.6657002471999267
1558 1540 -0.9978637043366801
1559 1540 -0.6055787835322123
1567 1540 -0.9806512649922178
1551 1541 -0.2812891018402661
1565 1541 -0.0404980620746482
1648 1542 0.0361644337290568
1671 1542 0.9630726035340433
1549 1543 -0.9493392742698447
1577 1543 0.1661732840968047
1605 1543 -0.2655415509506516
1618 1543 0.1360209967345194
1563 1544 -0.9396954252754296
1575 1544 0.5556505020294809
1547 1545 0.2991729483932004
1564 1545 0.2776879177220986
1568 1545 0.0225531785027620
1552 1546 0.8237250892666401
1569 1546 0.0813928647724844
1576 1546 -0.9807733390301218
1555 1547 -0.0099795525986511
1568 1547 0.9736320078127385
1572 1547 -0.4119693594164860
1557 1548 0.2902615436262093
1596 1548 -0.1764275032807398
1602 1548 -0.5254982146671956
1556 1549 -0.7435834833826716
1618 1549 0.2445448164311654
1640 1549 -0.3357341227454451
1553 1550 -0.9044160283211768
1562 1550 0.2016968291268655
1570 1550 0.2682882168034912
1562 1551 0.1591540269173253
1565 1551 0.4788659321878719
1573 1551 -0.2510147404400769
1559 1552 -0.3672902615436262
1576 1552 0.7535325174718466
1583 1552 0.5120090334788050
1564 1553 0.5641956846827600
1570 1553 -0.6464735862300486
1574 1553 0.3619800408948026
1577 1554 -0.4345530564287240
1580 1554 -0.8066957609790337
1597 1554 -0.1797845393230995
1566 1555 0.7311319315164648
1572 1555 0.6542863246559039
1578 1555 0.8264717551194800
1590 1556 -0.2427747428815576
1640 1556 -0.1941892757957702
1666 1556 0.5892208624530777
1560 1557 0.0949430829798272
1601 1557 -0.9204687643055514
1602 1557 -0.5876338999603259
1561 1558 0.1777703176976837
1567 1558 0.7178258613849300
1579 1558 -0.7944273201696829
1567 1559 0.5699942014831996
1581 1559 -0.4608600115970336
1583 1559 -0.1927854243598742
1561 1560 -0.6105838190862758
1586 1560 0.7440107425153355
1601 1560 -0.4054994354075747
1579 1561 -0.3526413769951475
1586 1561 0.6351207007049775
1570 1562 0.3530075991088595
1573 1562 -0.2040162358470412
1582 1562 0.7581102938932462
1569 1563 -0.2446668904690695
1575 1563 0.8424634540849025
1592 1563 -0.8439893795587023
1568 1564 -0.9440290536210212
1574 1564 -0.8624225592822047
1584 1564 -0.3631397442548906
1573 1565 0.6402478102969451
1585 1565 0.9265114291817989
1578 1566 0.7794732505264443
1580 1566 0.2837916196172978
1589 1566 -0.0138248847926268
1579 1567 -0.9826044495986817
1581 1567 0.1559190649128697
1587 1567 -0.8988006225775933
1572 1568 -0.9901730399487289
1584 1568 0.5688955351420637
1591 1568 0.4814294869838558
1576 1569 0.6421399578844569
1592 1569 0.4639118625446332
1600 1569 -0.9100924710837123
1574 1570 0.9289529099398786
1582 1570 -0.7129428998687704
1593 1570 0.5080416272469253
1759 1571 -0.8040711691640980
4210 1571 -0.6317636646626179
4560 1571 -0.7209997863704336
1578 1572 -0.1438337351603748
1591 1572 -0.5818353831598865
1595 1572 -0.8131046479689932
1582 1573 0.5112765892513809
1585 1573 -0.3389080477309488
1594 1573 0.7990661336100344
1584 1574 0.7549363689077426
1593 1574 0.3824884792626728
1598 1574 -0.7994323557237465
1592 1575 0.0844447157200843
1610 1575 -0.9029511398663289
1583 1576 -0.9697866756187628
1600 1576 -0.5737784966582232
1611 1576 -0.6731467635120700
1597 1577 0.3345744193853573
1605 1577 0.2559587389751885
1627 1577 -0.5615710928678244
1589 1578 0.7104403820917387
1595 1578 0.4586626789147619
1603 1578 -0.5459456160161138
1586 1579 -0.0505691702017274
1587 1579 0.4118472853785822
1607 1579 0.9988402966399121
1589 1580 0.8574175237281412
1597 1580 0.7972960600604266
1612 1580 0.3085116122928555
1617 1580 -0.8519241920224616
1583 1581 -0.5890377513962218
1587 1581 0.5731681264687032
1606 1581 -0.6531266212958159
1613 1581 0.9080172124393444
1593 1582 -0.4116641743217261
1594 1582 -0.5760368663594471
1604 1582 -0.6163823358867153
1611 1583 0.8148747215186010
1613 1583 0.4607379375591296
1591 1584 -0.9058809167760247
1598 1584 -0.6881618701742607
1608 1584 0.8117007965330973
1594 1585 -0.6668599505600146
1609 1585 -0.7327188940092166
1601 1586 0.2847682119205297
1607 1586 -0.1738029114658040
1629 1586 -0.7407757805108799
1606 1587 0.2715231788079471
1607 1587 -0.1499374370555742
1950 1588 0.6188238166447950
2071 1588 0.7477340006714073
1603 1589 -0.7891781365398114
1612 1589 -0.1936399426252022
1651 1590 -0.5372783593249306
1666 1590 0.9724112674336984
1723 1590 -0.4158757286294137
1595 1591 -0.4049501022370068
1608 1591 -0.7819147312845240
1616 1591 0.7988830225531784
1600 1592 -0.5441755424665060
1610 1592 0.0399487289040803
1622 1592 -0.6362804040650655
1598 1593 0.9401226844080934
1604 1593 0.2388073366496781
1615 1593 -0.7531662953581347
1604 1594 -0.4518265327921385
1609 1594 -0.4467604602191229
1614 1594 -0.8460646382030701
1603 1595 -0.5240943632312998
1616 1595 0.2225714896084474
1619 1595 0.5905026398510698
1602 1596 -0.5722525711844233
1620 1596 0.7989440595721304
1638 1596 0.9182714316232796
1617 1597 -0.7836848048341318
1627 1597 -0.7097689748832667
1635 1597 0.3546555986205633
1608 1598 -0.2684102908413953
1615 1598 -0.3962828455458235
1621 1598 -0.1632435071871090
1704 1599 -0.9858394116031373
1741 1599 0.5780510879848628
1778 1599 -0.5783562730796228
1611 1600 0.8155461287270729
1622 1600 0.2685934018982512
1628 1600 -0.2219611194189276
1602 1601 0.3265175328836940
1629 1601 0.4028748435926390
1642 1601 -0.8478347117526780
1638 1602 0.5382549516281625
1642 1602 0.7698904385509813
1612 1603 0.0298165837580493
1619 1603 0.0133365886410108
1624 1603 0.8888515884884183
1614 1604 0.4355906857509080
1615 1604 0.3219397564622943
1623 1604 0.9453108310190130
1618 1605 -0.3590502639851070
1627 1605 0.6175420392468032
1649 1605 -0.7854548783837397
1607 1606 -0.3104037598803674
1613 1606 -0.0738853114413892
1632 1606 -0.1478621784112064
1641 1606 0.3068636127811517
1629 1607 0.8251899777214882
1632 1607 0.8798791467024751
1616 1608 -0.8834803308206427
1621 1608 0.5159764397106845
1626 1608 -0.9456160161137730
1614 1609 -0.9674062318796350
1625 1609 -0.0939664906765953
1622 1610 -0.9049043244727928
1636 1610 0.3998229926450392
1613 1611 -0.0295724356822413
1628 1611 -0.4970549638355662
1639 1611 -0.9227271340067751
1617 1612 0.1230201116977447
1624 1612 -0.1730094302194281
1630 1612 0.7493820001831111
1639 1613 -0.7932676168095950
1641 1613 -0.8205511642811365
1623 1614 -0.8294015320291757
1625 1614 0.6360972930082094
1633 1614 -0.5779290139469588
1621 1615 0.0201727347636342
1623 1615 0.8487502670369580
1634 1615 -0.9791863765373700
1619 1616 -0.0480666524246955
1626 1616 -0.4461500900296029
1637 1616 0.3508102664265877
1630 1617 -0.2123783074434644
1635 1617 -0.9132663960692160
1644 1617 0.0818811609241004
1640 1618 0.2541276284066287
1649 1618 -0.2400280770287179
1676 1618 -0.3110141300698874
1624 1619 0.0181585131382183
1637 1619 -0.6859645374919889
1643 1619 -0.3192541276284067
1638 1620 -0.4964445936460463
1648 1620 -0.7932065797906430
1702 1620 -0.2389904477065340
1626 1621 0.5708487197485275
1634 1621 -0.6677755058442946
1645 1621 0.6499526963103122
1628 1622 -0.6330454420606098
1636 1622 -0.2209234900967437
1653 1622 0.1332743308816797
1633 1623 -0.5419782097842341
1634 1623 -0.1556749168370617
1646 1623 0.0362865077669607
1630 1624 -0.8903775139622181
1643 1624 0.8356273079622791
1647 1624 0.1392559587389752
1633 1625 -0.1742912076174200
1650 1625 -0.1520126956999420
1637 1626 -0.0856044190801721
1645 1626 0.1815546128727072
1652 1626 0.3820612201300089
1635 1627 0.5707266457106235
1649 1627 -0.7531052583391827
1656 1627 -0.3452558977019562
1672 1627 -0.3676564836573382
1639 1628 -0.4360179448835719
1653 1628 0.7723319193090610
1661 1628 -0.6522721030304880
1632 1629 0.3906064027832881
1642 1629 -0.1557969908749657
1675 1629 0.0676595355082859
1680 1629 -0.3488570818201239
1644 1630 -0.8815271462141789
1647 1630 0.1247291482284005
1654 1630 -0.3029572435682242
1767 1631 -0.2391125217444380
1826 1631 0.5655384990997039
1908 1631 0.1462752159184546
1641 1632 -0.5298318430127873
1669 1632 0.1507919553209021
1675 1632 0.6002685628833888
1646 1633 -0.5668202764976958
1650 1633 0.4244819483016449
1655 1633 -0.1224097415082247
1645 1634 0.5453352458265939
1646 1634 -0.4622028260139774
1657 1634 0.3417157506027406
1644 1635 -0.7195348979155858
1656 1635 -0.6705221716971344
1658 1635 0.8353221228675192
1653 1636 -0.3874324777977843
1663 1636 -0.3622241889706107
1643 1637 0.7676320688497573
1652 1637 -0.0674153874324778
1659 1637 -0.7387005218665120
1642 1638 0.3423871578112125
1685 1638 0.2830591753898739
1702 1638 0.7522507400738547
1641 1639 -0.0569170201727348
1661 1639 -0.8395336771752068
1665 1639 0.3831598864711447
1666 1640 -0.6450086977752006
1676 1640 -0.2737205114902188
1712 1640 0.1338236640522477
1665 1641 -0.7983947264015625
1669 1641 -0.4366283150730919
1680 1642 -0.5271462141788995
1685 1642 0.6891384624774926
1647 1643 -0.5801873836481826
1659 1643 -0.5522324289681693
1660 1643 -0.3714407788323618
1654 1644 0.5178075502792443
1658 1644 -0.1210669270912809
1652 1645 -0.2607196264534440
1657 1645 -0.7643360698263497
1662 1645 -0.2135380108035524
1655 1646 -0.8032166508987701
1657 1646 0.2299569689016387
1667 1646 0.9815668202764978
1654 1647 -0.7567064424573504
1660 1647 -0.2993560594500565
1664 1647 -0.7755668813135166
1671 1648 -0.9063692129276406
1702 1648 -0.2197027497177038
1736 1648 0.9887081514938811
1672 1649 0.1045258949552903
1676 1649 -0.1036103396710105
1694 1649 0.0157780693990905
1655 1650 -0.5664540543839839
1668 1650 0.0698568681905576
1704 1651 -0.1612292855616931
1723 1651 -0.5413678395947141
1760 1651 0.9393292031617175
1659 1652 -0.8836634418774987
1662 1652 0.8088930936613057
1673 1652 -0.1828974272896512
1661 1653 -0.7352824488052003
1663 1653 0.3161412396618548
1681 1653 -0.4554277169103061
1658 1654 0.0149235511337626
1664 1654 -0.7739799188207648
1670 1654 -0.5400250251777703
1667 1655 0.9557481612598040
1668 1655 -0.5238502151554918
1677 1655 -0.9096652119510483
1658 1656 -0.8737754448072756
1672 1656 0.1676992095706045
1674 1656 -0.7565843684194464
1689 1656 -0.5263527329325235
1662 1657 -0.7625659962767418
1667 1657 -0.8988006225775933
1678 1657 -0.5109103671376690
1670 1658 -0.9451277199621571
1674 1658 -0.8318430127872555
1660 1659 0.3992126224555193
1673 1659 0.9847407452620014
1679 1659 0.4187444685201576
1664 1660 -0.5341044343394268
1679 1660 0.5139011810663168
1682 1660 -0.9105807672353282
1665 1661 0.3402508621478928
1681 1661 0.2479018524735253
1687 1661 0.7665944395275734
1673 1662 -0.1793572801904355
1678 1662 -0.1767937253944517
1683 1662 0.3359172338023011
1681 1663 0.1928464613788263
1693 1663 0.5688344981231117
1670 1664 0.2047486800744651
1682 1664 0.1921750541703544
1684 1664 0.9849848933378094
1669 1665 -0.9801019318216498
1687 1665 0.6389049958800013
1695 1665 0.7185583056123539
1712 1666 0.3446455275124363
1723 1666 0.8469191564683980
1756 1666 -0.7280190435499130
1677 1667 0.9813226722006898
1678 1667 -0.4413281655323954
1686 1667 -0.2667012543107394
1677 1668 -0.5787224951933347
1690 1668 0.9240089114047669
1675 1669 0.1095309305093539
1695 1669 0.2917874691000091
1700 1669 -0.9295632801293985
1674 1670 0.1318704794457839
1684 1670 -0.3668630024109623
1688 1670 -0.5610827967162084
1691 1671 0.9938352610858485
1736 1671 0.7086703085421309
1769 1671 -0.4618976409192175
1689 1672 0.7905209509567552
1694 1672 -0.1780144657734917
1710 1672 -0.6702169866023744
1679 1673 -0.9039277321695608
1683 1673 -0.3622852259895627
1692 1673 -0.6384777367473373
1688 1674 0.5335551011688588
1689 1674 -0.1817987609485153
1680 1675 -0.9309060945463423
1700 1675 0.4810632648701438
1715 1675 0.3129673146763512
1694 1676 0.9291970580156865
1712 1676 0.7985168004394665
1730 1676 0.8757896664326914
1686 1677 0.0715659047212134
1690 1677 -0.2490615558336131
1696 1677 -0.7369304483169041
1683 1678 -0.9759514145329142
1686 1678 0.0040589617603077
1697 1678 -0.1902829065828425
1682 1679 0.5535142063661611
1692 1679 -0.3523361919003876
1698 1679 -0.0341502121036409
1685 1680 0.4775841547898800
1715 1680 0.7377849665822320
1731 1680 0.9880977813043610
1687 1681 0.8933683278908657
1693 1681 0.9620960112308115
1705 1681 -0.8565019684438612
1684 1682 -0.7875911740470596
1698 1682 0.8371532334360789
1699 1682 0.4560380870998260
1692 1683 -0.8416089358195746
1697 1683 0.2600482192449720
1701 1683 0.6715598010193182
1688 1684 -0.7405926694540239
1699 1684 0.1134372997222817
1703 1684 0.4434644611957153
1702 1685 -0.4581743827631458
1731 1685 0.6874294259468368
1755 1685 0.8106021301919615
1696 1686 0.1157567064424574
1697 1686 -0.8873256630146183
1706 1686 0.5750602740562152
1695 1687 0.2573015533921323
1705 1687 -0.2836085085604420
1713 1687 0.6797387615588855
1689 1688 0.1927243873409223
1703 1688 0.1706900234992523
1709 1688 0.5091402935880611
1709 1689 0.2068239387188329
1710 1689 -0.6159550767540514
1696 1690 0.8137760551774651
1708 1690 -0.6769310586870938
1767 1691 -0.6481826227607044
1769 1691 -0.2609027375103000
1835 1691 0.7260658589434492
1698 1692 -0.3890194402905363
1701 1692 -0.4571367534409619
1711 1692 0.6149784844508195
1705 1693 -0.0885952330088199
1716 1693 0.1356547746208074
1710 1694 -0.8317819757683035
1730 1694 -0.1832026123844112
1733 1694 -0.9547715689565721
1700 1695 -0.4017151402325511
1713 1695 0.9415875728629415
1722 1695 -0.2487563707388531
1706 1696 0.2638935514389478
1708 1696 0.5206762901699882
1714 1696 -0.4941862239448226
1701 1697 0.8653523361919004
1706 1697 0.0984832300790430
1717 1697 0.6932889797662283
1699 1698 0.3378704184087649
1711 1698 -0.8172551652577288
1719 1698 0.1156346324045534
1703 1699 -0.4969328897976623
1719 1699 0.0160832544938505
1720 1699 -0.2495498519852291
1715 1700 -0.1720328379161962
1722 1700 -0.5477767265846736
1734 1700 0.9143040253913999
1711 1701 0.8076113162633136
1717 1701 -0.5634632404553361
1721 1701 0.1805169835505234
1736 1702 0.3832209234900967
1755 1702 0.4902798547318949
1784 1702 0.9680166020691550
1709 1703 -0.6951811273537400
1720 1703 -0.5165868099002044
1724 1703 0.8832972197637867
1760 1704 -0.6319467757194739
1778 1704 -0.6130252998443556
1827 1704 -0.6686910611285745
1713 1705 -0.7677541428876613
1716 1705 0.1155735953856014
1728 1705 -0.6569109164708395
1714 1706 0.1207617419965208
1717 1706 -0.8713950010681478
1725 1706 0.9177831354716635
1718 1707 -0.3928037354655599
1741 1707 0.8829920346690268
1870 1707 -0.5205542161320842
1996 1707 0.0504470961638233
1714 1708 -0.6394543290505692
1726 1708 -0.9524521622363964
1710 1709 0.0751670888393812
1724 1709 0.9051484725486008
1727 1709 -0.8594317453535569
1727 1710 -0.1335795159764397
1733 1710 -0.4327829828791162
1719 1711 -0.6943876461073641
1721 1711 -0.8590655232398450
1729 1711 0.7636646626178778
1730 1712 0.6687520981475266
1756 1712 -0.8432569353312784
1786 1712 0.5153660695211646
1797 1712 0.6736960966826380
1722 1713 0.3898129215369122
1728 1713 0.9875484481337931
1739 1713 -0.0021057771538439
1725 1714 -0.5698110904263436
1726 1714 0.1210669270912808
1732 1714 0.9515366069521165
1731 1715 -0.8475295266579180
1734 1715 -0.7316812646870328
1748 1715 -0.6232184820093387
1728 1716 0.8464918973357340
1740 1716 0.5634022034363841
1721 1717 -0.4973601489303262
1725 1717 0.0112613299966429
1735 1717 0.7161168248542742
1793 1718 0.2798242133854183
1996 1718 0.4434034241767633
2055 1718 0.7197180089724418
1720 1719 0.5967284157841730
1729 1719 0.8271431623279519
1738 1719 -0.3866389965514084
1724 1720 0.6375011444441054
1737 1720 0.9702139347514267
1738 1720 0.0962248603778191
1729 1721 0.3287759025849177
1735 1721 -0.1513412884914701
1742 1721 0.4871059297463911
1734 1722 0.4255195776238287
1739 1722 -0.2953886532181769
1747 1722 -0.3816339609973449
1756 1723 0.5216528824732201
1760 1723 -0.8144474623859370
1787 1723 0.1495712149418622
1800 1723 0.1589098788415173
1727 1724 -0.8789025543992431
1737 1724 -0.8190862758262887
1743 1724 -0.5889156773583178
1732 1725 0.7448042237617114
1735 1725 -0.0877407147434919
1744 1725 0.1807000946073793
1732 1726 -0.7663502914517655
1745 1726 -0.0128482924893948
1733 1727 0.5274513992736596
1743 1727 -0.1096530045472579
1753 1727 -0.3068025757621998
1739 1728 -0.9188207647938474
1740 1728 0.1125827814569536
1751 1728 -0.3223059785760064
1738 1729 -0.7305215613269448
1742 1729 -0.1614734336375011
1746 1729 0.4799035615100558
1733 1730 -0.6351207007049775
1775 1730 -0.2805566576128422
1786 1730 0.3174230170598469
1748 1731 0.4673909726248970
1755 1731 0.3998229926450392
1774 1731 -0.1861934263130589
1744 1732 -0.1371807000946074
1745 1732 0.0680867946409498
1750 1732 -0.2815942869350261
1753 1733 0.9993896298104801
1775 1733 0.3698538163396099
1747 1734 -0.1088595233008820
1748 1734 -0.3885311441389202
1762 1734 -0.9503769035920285
1742 1735 -0.4188055055391094
1744 1735 0.5176854762413403
1752 1735 -0.0929288613544115
1769 1736 0.7664723654896695
1784 1736 -0.7665334025086215
1819 1736 -0.6867580187383648
1738 1737 -0.2173833429975280
1743 1737 -0.2057863093966491
1754 1737 -0.1373027741325114
1758 1737 -0.7394940031128880
1746 1738 -0.4820398571733756
1754 1738 0.6108890041810358
1747 1739 -0.9168675801873837
1751 1739 -0.6268196661275063
1764 1739 -0.4976042970061342
1751 1740 0.7564012573625905
1761 1740 -0.8491164891506698
1778 1741 -0.7448652607806634
1853 1741 0.8084047975096895
1870 1741 0.3622852259895626
1746 1742 0.6252327036347545
1752 1742 -0.6339609973448896
1757 1742 0.6435438093203527
1753 1743 -0.9553819391460922
1758 1743 -0.0597247230445265
1750 1744 -0.4430372020630512
1752 1744 0.9948728904080324
1763 1744 -0.7773979918820765
1750 1745 -0.3009430219428083
1765 1745 -0.5623645741142003
1754 1746 -0.2239143040253914
1757 1746 -0.0748008667256691
1766 1746 -0.4970549638355662
1762 1747 -0.8614459669789727
1764 1747 0.7921689504684590
1772 1747 0.1490829187902463
1762 1748 0.1286355174413281
1774 1748 0.0300607318338573
1777 1748 -0.1681264687032685
1826 1749 -0.1706289864803003
1950 1749 0.8652912991729484
2353 1749 -0.0396435438093203
2451 1749 -0.7975402081362346
1763 1750 -0.5134128849147008
1765 1750 0.8242744224372083
1768 1750 0.5767082735679190
1761 1751 0.0182195501571703
1764 1751 0.6115604113895077
1773 1751 0.0342112491225928
1757 1752 -0.7098300119022187
1763 1752 0.5545518356883450
1771 1752 -0.1490218817712943
1758 1753 -0.8663289284951323
1775 1753 -0.5521103549302653
1779 1753 -0.0177922910245064
1758 1754 -0.9429914242988372
1766 1754 -0.5259865108188115
1770 1754 -0.7255775627918333
1774 1755 -0.2077394940031129
1784 1755 0.2616351817377238
1809 1755 0.4443800164799951
1828 1755 -0.8541215247047335
1787 1756 0.2247077852717674
1797 1756 -0.3600268562883389
1811 1756 -0.1672109134189886
1766 1757 -0.2421643726920377
1771 1757 0.0143131809442427
1776 1757 -0.4757530442213203
1770 1758 0.0342722861415448
1779 1758 0.7505417035431989
1789 1758 0.7643971068453017
4560 1759 0.5309915463728752
4562 1759 -0.0809045686208686
4602 1759 0.3539231543931394
1800 1760 0.2628559221167639
1827 1760 0.8638264107181006
1838 1760 -0.8259834589678641
1773 1761 -0.3858455153050325
1782 1761 0.0516678365428633
1772 1762 0.8549760429700612
1777 1762 0.9284035767693106
1788 1762 -0.2347788933988464
1768 1763 -0.4371776482436598
1771 1763 -0.1928464613788262
1781 1763 -0.5218970305490280
1772 1764 0.3071687978759117
1773 1764 0.1332132938627277
1785 1764 -0.8010193182164983
1768 1765 0.9196752830591755
1780 1765 0.3539231543931394
1770 1766 -0.7891781365398114
1776 1766 -0.6839503158665731
1783 1766 -0.4933317056794946
1835 1767 0.8134098330637531
1908 1767 0.0653401287881099
1983 1767 -0.6297494430372020
1780 1768 -0.4580523087252418
1781 1768 -0.0381786553544725
1790 1768 -0.6857814264351330
1819 1769 0.1699575792718284
1835 1769 -0.3830988494521927
1879 1769 -0.0247505111850337
1783 1770 -0.4213080233161413
1789 1770 -0.5965453047273170
1776 1771 -0.9889522995696890
1781 1771 0.9807733390301219
1792 1771 -0.4196600238044373
1785 1772 0.5984984893337810
1788 1772 -0.9353617969298380
1795 1772 0.1891232032227546
1782 1773 0.9920651875362407
1785 1773 -0.1807611316263313
1794 1773 -0.6641132847071749
1777 1774 0.6729026154362621
1802 1774 0.3552659688100832
1809 1774 -0.8351390118106632
1779 1775 -0.6438489944151128
1786 1775 -0.6494033631397442
1816 1775 -0.6238288521988586
1824 1775 -0.8687704092532120
1783 1776 -0.2047486800744651
1792 1776 0.7412030396435438
1796 1776 -0.0868251594592120
1788 1777 0.8981902523880734
1799 1777 -0.1506698812829982
1802 1777 0.0499588000122073
1827 1778 0.9683828241828669
1853 1778 0.6047853022858363
1857 1778 0.6641132847071749
1789 1779 0.1494491409039582
1808 1779 -0.0047303689687795
1816 1779 0.6763817255165259
1790 1780 -0.3945127719962157
1798 1780 0.0172429578539384
1790 1781 -0.1640369884334849
1792 1781 0.2637714774010438
1801 1781 -0.8095645008697775
1794 1782 -0.8071230201116977
1803 1782 -0.4011658070619831
1789 1783 -0.1408429212317270
1796 1783 -0.5092013306070131
1804 1783 -0.1822260200811793
1819 1784 0.7909482100894192
1828 1784 0.1493270668660542
1848 1784 -0.1782586138492996
1794 1785 0.8183538315988648
1795 1785 -0.9837031159398175
1805 1785 0.1706900234992523
1797 1786 0.5281838435010835
1824 1786 -0.2025513473921934
1830 1786 0.5535752433851131
1800 1787 0.8269600512710960
1811 1787 0.6814477980895413
1832 1787 -0.8055360576189459
1795 1788 0.1243629261146886
1799 1788 0.8325754570146795
1806 1788 0.4982757042146062
1804 1789 0.2778710287789545
1808 1789 -0.8333689382610553
1798 1790 -0.8552201910458693
1801 1790 0.2954496902371289
1807 1790 -0.4678182317575610
4620 1791 0.9230933561204870
4632 1791 0.9464094973601489
1796 1792 0.7915585802789391
1801 1792 -0.9981688894314402
1810 1792 -0.3404339732047487
1813 1793 -0.7587817011017182
2055 1793 0.5691396832178717
2466 1793 -0.8450270088808862
1803 1794 0.3246864223151342
1805 1794 -0.8733481856746117
1812 1794 -0.4904019287697989
1805 1795 -0.1713003936887723
1806 1795 -0.0375072481460006
1814 1795 0.8027893917661062
1804 1796 0.0132755516220588
1810 1796 -0.1807000946073793
1823 1796 -0.8071230201116977
1811 1797 0.3837702566606647
1830 1797 0.8168279061250650
1839 1797 0.6794335764641255
1807 1798 -0.9300515762810144
1817 1798 0.5717032380138554
1802 1799 -0.7788628803369244
1806 1799 -0.7153843806268502
1818 1799 -0.3679616687520981
1820 1799 0.2565691091647084
1832 1800 0.5418561357463301
1838 1800 0.7321085238196967
1871 1800 -0.5444196905423140
1807 1801 -0.8958708456678975
1810 1801 0.5947141941587573
1821 1801 0.1339457380901516
1809 1802 0.5258644367809076
1820 1802 0.1953489791558580
1840 1802 0.0291451765495774
1812 1803 0.8672444837794122
1822 1803 -0.2643208105716117
1808 1804 0.7778252510147405
1823 1804 0.3213904232917264
1837 1804 -0.1559801019318217
1812 1805 -0.6733909115878780
1814 1805 0.1944944608905301
1825 1805 0.2406994842371899
1814 1806 -0.6369518112735374
1818 1806 -0.4166081728568377
1829 1806 -0.9504379406109805
1817 1807 0.6005127109591968
1821 1807 0.1059297463911864
1831 1807 0.0945158238471633
1816 1808 0.6755882442701497
1837 1808 0.1073946348460342
1852 1808 0.8408154545731987
1828 1809 0.8928800317392498
1840 1809 0.9636829737235633
1849 1809 0.1200292977690969
1821 1810 -0.6050904873805963
1823 1810 -0.2137821588793604
1836 1810 -0.3802301095614490
1832 1811 -0.8691366313669240
1839 1811 0.4599444563127537
1859 1811 -0.8068178350169377
1822 1812 0.9091158787804803
1825 1812 0.7830133976256599
1833 1812 0.7911313211462752
1815 1813 0.7943662831507310
2466 1813 0.9510483108005006
3077 1813 0.2346568193609424
1825 1814 -0.6362193670461135
1829 1814 -0.6872463148899808
1834 1814 -0.3721732230597857
1897 1815 0.6840113528855252
3077 1815 -0.9504379406109805
4267 1815 -0.2638325144199958
1824 1816 0.1686758018738366
1852 1816 0.8660847804193244
1855 1816 -0.6255989257484664
1831 1817 -0.7072664571062349
1843 1817 0.4723349711600084
1820 1818 -0.6641743217261269
1829 1818 0.9209570604571673
1841 1818 0.4932096316415906
1842 1818 -0.7697683645130772
1848 1819 0.3476973784600361
1879 1819 0.9382915738395337
1905 1819 0.5518662068544573
1840 1820 0.9134495071260720
1841 1820 -0.8538163396099734
1831 1821 0.7212439344462416
1836 1821 -0.5004119998779260
1846 1821 0.6844996490371411
1833 1822 -0.5212256233405561
1844 1822 0.3213293862727744
1836 1823 0.2998443556016723
1837 1823 -0.7016510513626515
1851 1823 -0.8559526352732932
1830 1824 -0.8474074526200140
1855 1824 -0.7182531205175939
1866 1824 -0.9461653492843409
1833 1825 0.3872493667409285
1834 1825 0.0544755394146550
1845 1825 0.2018189031647695
1908 1826 0.8582110049745171
2353 1826 0.9562974944303719
2470 1826 -0.6263313699758903
1838 1827 0.2471694082461013
1857 1827 -0.5324564348277230
1921 1827 0.6305429242835781
1848 1828 0.6288949247718740
1849 1828 -0.7076937162388989
1873 1828 0.9659413434247872
1834 1829 -0.9658192693868831
1842 1829 0.3193762016663106
1847 1829 0.7233802301095615
1839 1830 -0.4556108279671621
1860 1830 -0.4521317178868984
1866 1830 -0.5589465010528886
1843 1831 -0.8606524857325968
1846 1831 -0.3558153019806513
1850 1831 -0.8698690755943480
1859 1832 -0.7282631916257210
1871 1832 -0.7528611102633748
1903 1832 0.5253761406292916
1844 1833 0.8615680410168767
1845 1833 0.9885860774559772
1854 1833 -0.7416302987762078
1845 1834 -0.6768089846491898
1847 1834 -0.9759514145329142
1856 1834 -0.3200476088747826
1879 1835 -0.8961760307626575
1983 1835 -0.3434247871333964
2002 1835 -0.4717856379894406
1846 1836 0.3148594622638630
1851 1836 0.7764824365977965
1864 1836 -0.1517075106051821
1851 1837 -0.4999237037263100
1852 1837 0.2308725241859189
1878 1837 -0.8842127750480666
1871 1838 -0.1778313547166357
1921 1838 0.8411206396679587
1948 1838 -0.2949613940855129
1859 1839 0.3462935270241401
1860 1839 0.7379680776390880
1890 1839 -0.4269844660786767
1841 1840 -0.8309884945219276
1849 1840 0.6819360942411572
1867 1840 0.4270455030976288
1872 1840 -0.2192144535660878
1842 1841 0.6310312204351940
1858 1841 0.3101596118045595
1867 1841 0.6916409802545245
1847 1842 -0.0350657673879208
1858 1842 -0.1326639606921598
1861 1842 -0.9334086123233741
1850 1843 -0.4704428235724967
1863 1843 0.6173589281899472
1854 1844 0.9465315713980529
1862 1844 -0.8857387005218665
1854 1845 0.3474532303842279
1856 1845 0.8317819757683034
1865 1845 -0.3530075991088595
1850 1846 0.9388409070101016
1864 1846 -0.7754448072756126
1869 1846 0.7618335520493180
1856 1847 -0.6671651356547746
1861 1847 -0.0273140659810175
1868 1847 0.2900784325693533
1873 1848 -0.2602313303018281
1905 1848 -0.1518295846430860
1914 1848 0.1610461745048373
1872 1849 0.2759788811914425
1873 1849 0.8674275948362682
1888 1849 0.9941404461806085
1863 1850 -0.2188482314523759
1869 1850 0.3085116122928555
1876 1850 -0.1076998199407941
1864 1851 -0.8499710074159978
1878 1851 -0.1715445417645802
1884 1851 -0.0001525925473800
1855 1852 -0.8184148686178168
1878 1852 0.6022217474898526
1896 1852 0.2814722128971221
1857 1853 -0.0961638233588672
1870 1853 0.6061891537217323
1961 1853 0.1412701803643910
2129 1853 0.5580309457686086
1862 1854 -0.6030762657551805
1865 1854 0.1472518082216865
1874 1854 0.4925382244331187
1866 1855 -0.5245826593829157
1891 1855 0.0473342081972716
1896 1855 0.0382396923734245
1865 1856 -0.8597979674672689
1868 1856 -0.9726554155095065
1875 1856 -0.4643391216772973
1921 1857 -0.7456587420270394
1961 1857 0.1090426343577380
1861 1858 -0.7109897152623066
1867 1858 0.1879024628437147
1877 1858 0.1620838038270211
1882 1858 -0.7347941526535844
1890 1859 0.7642139957884457
1903 1859 -0.8151188695944090
1934 1859 0.1416974394970549
1866 1860 0.6996368297372357
1890 1860 -0.5138401440473648
1913 1860 0.5099948118533890
1868 1861 -0.0055238502151554
1877 1861 0.7551805169835506
1880 1861 -0.8151188695944090
1874 1862 -0.3032013916440321
1881 1862 -0.0518509475997192
1876 1863 -0.7384563737907041
1886 1863 -0.1669057283242287
1869 1864 -0.5585192419202246
1884 1864 -0.9280983916745507
1889 1864 0.5394146549882504
1874 1865 0.8839686269722586
1875 1865 -0.8604693746757408
1883 1865 0.9145481734672078
1891 1866 -0.2634662923062837
1913 1866 0.5123142185735650
1872 1867 0.4116641743217262
1882 1867 -0.8227484969634082
1885 1867 -0.9415875728629414
1875 1868 -0.8272041993469039
1880 1868 -0.3198644978179266
1887 1868 0.2349009674367504
1876 1869 -0.5436872463148900
1889 1869 0.7865535447248757
1893 1869 -0.1413922544022950
1996 1870 0.3163853877376628
2129 1870 0.3340250862147893
2657 1870 -0.1308938871425520
1903 1871 0.2174443800164800
1948 1871 0.1584215826899014
1986 1871 0.8377636036255989
1885 1872 -0.0870082705160680
1888 1872 0.4874111148411511
1894 1872 0.9444563127536851
1888 1873 -0.7105624561296426
1914 1873 -0.6643574327829829
1929 1873 0.2645649586474197
1881 1874 0.3406170842616048
1883 1874 0.3281655323953978
1892 1874 0.3073519089327676
1883 1875 -0.2223273415326396
1887 1875 0.4427320169682913
1895 1875 0.3200476088747826
1886 1876 0.7694631794183171
1893 1876 -0.9178441724906156
1900 1876 0.4450514236884671
1880 1877 0.6008789330729087
1882 1877 0.9577013458662680
1898 1877 -0.2583391827143162
1902 1877 -0.1549424726096378
1884 1878 -0.8868373668630024
1896 1878 0.7407757805108799
1923 1878 0.0609454634235664
1926 1878 0.9950560014648884
1905 1879 0.0002136295663320
2002 1879 -0.9113132114627521
2005 1879 -0.0682699056978057
1887 1880 0.8144474623859370
1898 1880 -0.2808618427076022
1901 1880 -0.0177922910245064
1892 1881 0.3544724875637073
1904 1881 0.4748985259559924
1885 1882 -0.7630542924283578
1899 1882 0.0757774590289011
1902 1882 -0.3016144291512802
1892 1883 0.8696859645374919
1895 1883 0.8706625568407238
1906 1883 0.4278389843440047
1889 1884 -0.2378307443464461
1912 1884 0.6818140202032532
1923 1884 -0.6661885433515427
1894 1885 -0.3910336619159520
1899 1885 -0.3018585772270882
1907 1885 0.8616290780358287
1900 1886 -0.4461500900296029
1910 1886 0.5022431104464857
1895 1887 0.8620563371684926
1901 1887 0.3272499771111179
1909 1887 0.8203680532242805
1894 1888 0.1070284127323222
1915 1888 0.6511123996704000
1929 1888 0.7002471999267557
1935 1888 -0.1716055787835322
1893 1889 0.6594744712668232
1912 1889 0.3932920316171757
1920 1889 0.8886074404126103
1913 1890 0.1786858729819636
1934 1890 -0.6183965575121311
1959 1890 -0.6509903256324960
1896 1891 -0.6694235053559985
1913 1891 0.8975798821985534
1942 1891 -0.8278145695364238
1973 1891 -0.1105075228125858
1904 1892 0.7105624561296426
1906 1892 -0.4614703817865535
1916 1892 -0.4487746818445387
1900 1893 -0.0871303445539720
1920 1893 0.9600817896053957
1922 1893 0.4289376506851406
1907 1894 0.1708120975371563
1915 1894 -0.4387646107364116
1906 1895 -0.6431165501876888
1909 1895 -0.3772392956328013
1917 1895 0.2052980132450331
1926 1896 0.3009430219428084
1942 1896 -0.4658040101321451
2122 1897 -0.8757286294137394
4267 1897 -0.0676595355082857
4530 1897 -0.5712759788811914
1901 1898 0.2120120853297525
1902 1898 -0.0575884273812067
1918 1898 -0.1816766869106113
1919 1898 0.0663167210913418
1902 1899 -0.5360576189458907
1907 1899 0.5403912472914822
1911 1899 -0.5803094576860865
1927 1899 -0.2949613940855129
1910 1900 -0.6678365428632466
1922 1900 0.2422864467299417
1928 1900 -0.5862300485244301
1909 1901 -0.6350596636860255
1919 1901 0.6017334513382366
1924 1901 0.1589098788415173
1911 1902 -0.9294412060914945
1918 1902 0.4285103915524766
1934 1903 0.5477156895657216
1986 1903 -0.8039490951261941
1997 1903 0.4784386730552079
1916 1904 -0.7866145817438276
1925 1904 -0.5319071016571550
1914 1905 -0.2931302835169530
1992 1905 -0.1634266182439650
2005 1905 0.3458052308725241
1916 1906 0.8137760551774651
1917 1906 0.3517258217108676
1931 1906 -0.8739585558641316
1915 1907 0.9967650379955444
1927 1907 0.7286294137394329
1933 1907 0.7271034882656331
1983 1908 0.4723960081789604
2212 1908 -0.9553819391460922
2470 1908 -0.1873531296731468
1917 1909 -0.6731467635120700
1924 1909 0.5118869594409010
1932 1909 -0.7740409558397168
1928 1910 0.9200415051728874
1938 1910 -0.6018555253761406
1918 1911 -0.9254127628406629
1927 1911 0.3365886410107730
1930 1911 -0.1951658680990020
1920 1912 0.2539445173497727
1923 1912 -0.5037690359202857
1936 1912 -0.4535966063417463
1949 1912 0.4270455030976288
1959 1913 0.6052735984374522
1973 1913 0.8710898159733877
1929 1914 0.8899502548295541
1987 1914 -0.2691427350688192
1992 1914 -0.5244605853450117
1933 1915 -0.4409009063997315
1935 1915 -0.0049745170445875
1925 1916 -0.2912991729483932
1931 1916 -0.7401654103213600
1939 1916 0.2596209601123081
1931 1917 0.1124607074190496
1932 1917 -0.4374217963194678
1941 1917 0.4899746696371350
1919 1918 -0.0363475447859126
1930 1918 -0.4913785210730308
1937 1918 -0.2246467482528154
1924 1919 0.8706015198217718
1937 1919 -0.9025849177526170
1940 1919 -0.7156895657216101
1922 1920 0.9051484725486008
1936 1920 0.1460921048615986
1943 1920 -0.8293404950102237
1948 1921 -0.3185827204199347
1961 1921 0.9146092104861598
2025 1921 -0.6368297372356334
1928 1922 -0.7600024414807580
1943 1922 -0.0592974639118625
1947 1922 -0.1519516586809900
1926 1923 0.0892056031983397
1949 1923 0.5026093325601977
1955 1923 -0.2272713400677511
1932 1924 -0.3316446424756615
1940 1924 0.1510361033967100
1945 1924 -0.6699118015076144
1939 1925 -0.4952848902859585
1946 1925 0.0671712393566699
1942 1926 -0.5442976165044100
1955 1926 0.0573442793053986
1976 1926 0.9652699362163153
1930 1927 0.0593585009308146
1933 1927 0.4553666798913540
1944 1927 -0.1631214331492050
1954 1927 0.1703848384044924
1938 1928 0.1761223181859799
1947 1928 0.8192083498641927
1952 1928 0.8727378154850918
1935 1929 -0.1275978881191443
1977 1929 -0.9325540940580462
1987 1929 0.8754844813379314
1937 1930 0.3451338236640522
1944 1930 -0.9649647511215552
1939 1931 -0.6722922452467421
1941 1931 -0.6150395214697715
1951 1931 -0.6599627674184393
1941 1932 -0.7036652729880672
1945 1932 0.3563035981322673
1953 1932 0.2092654194769128
1935 1933 -0.9059419537949767
1954 1933 -0.5173192541276284
1969 1933 -0.9342631305887020
1959 1934 -0.5640736106448561
1993 1934 -0.1312601092562640
1997 1934 0.2359385967589342
1969 1935 0.2501602221747490
1977 1935 -0.4766075624866482
1943 1936 0.7664723654896695
1949 1936 -0.1836909085360271
1957 1936 -0.5737174596392712
1964 1936 0.0276802880947296
1940 1937 -0.2001098666341136
1944 1937 -0.8559526352732932
1956 1937 -0.0400097659230323
1952 1938 -0.5263527329325235
1962 1938 0.5279396954252755
1946 1939 -0.8590044862208930
1951 1939 -0.7103793450727867
1958 1939 -0.0663167210913419
1945 1940 0.5706045716727195
1956 1940 0.4360789819025239
1963 1940 0.0605182042909025
1951 1941 0.8751792962431715
1953 1941 0.3155919064912869
1960 1941 0.4965666676839504
1973 1942 0.9814447462385938
1976 1942 -0.1591540269173254
2014 1942 -0.8720053712576677
1947 1943 0.2471694082461013
1957 1943 -0.7836237678151798
1966 1943 0.5229346598712119
1954 1944 -0.6225470748008668
1956 1944 -0.7595141453291421
1970 1944 -0.8755455183568834
1953 1945 -0.2052369762260812
1963 1945 -0.4067201757866146
1967 1945 -0.5597399822992646
1958 1946 -0.8409985656300546
1965 1946 0.2618793298135320
1952 1947 -0.9384746848963896
1966 1947 0.6807763908810693
1972 1947 -0.2596209601123081
1986 1948 -0.1050752281258583
2025 1948 -0.8241523483993042
2082 1948 -0.1360209967345195
1955 1949 -0.0870082705160680
1964 1949 -0.6926175725577564
1978 1949 -0.1454206976531266
2071 1950 0.9584948271126439
2451 1950 -0.3991515854365673
3954 1950 0.2400891140476700
1958 1951 0.3371379741813409
1960 1951 -0.1396832178716392
1971 1951 -0.7274086733603931
1962 1952 -0.1845454268013550
1972 1952 0.6713156529435103
1975 1952 -0.8190252388073367
1960 1953 -0.1705069124423964
1967 1953 0.1235694448683127
1974 1953 -0.7950987273781549
1969 1954 -0.9775383770256660
1970 1954 0.5286111026337474
2001 1954 -0.2969145786919767
1976 1955 0.3935361796929837
1978 1955 0.8043763542588580
2013 1955 -0.2467421491134373
1963 1956 0.4786828211310159
1970 1956 0.2373424481948301
1980 1956 0.2027344584490494
1964 1957 0.4445020905178991
1966 1957 0.7185583056123539
1981 1957 -0.3408001953184606
1965 1958 0.2663960692159795
1971 1958 -0.9960325937681204
1979 1958 -0.4263130588702048
1973 1959 -0.8631550035096286
1993 1959 0.7701345866267892
2020 1959 -0.5166478469191564
1971 1960 -0.2382580034791101
1974 1960 0.9014252143925290
1982 1960 0.8694418164616839
2025 1961 -0.1299172948393200
2129 1961 -0.0422681356242561
2302 1961 0.0144962920010987
1975 1962 -0.8817102572710349
1984 1962 0.2843409527878658
1967 1963 -0.5453962828455459
1980 1963 0.6374401074251534
1988 1963 -0.0869472334971160
1978 1964 -0.1020844141972106
1981 1964 0.6555681020538957
1999 1964 0.8036439100314341
1979 1965 0.4236884670552690
1985 1965 0.3890194402905363
1972 1966 -0.0389110995818964
1981 1966 0.0079042939542833
1990 1966 -0.9229102450636311
1974 1967 0.7436445204016235
1988 1967 0.6130252998443555
1989 1967 0.9243140964995269
4363 1968 -0.3473311563463241
4595 1968 -0.7817926572466201
4597 1968 0.0578936124759666
1977 1969 -0.4342478713339640
2001 1969 0.0542313913388470
2018 1969 -0.7256996368297373
1980 1970 -0.6074709311197242
2001 1970 -0.8028504287850582
2004 1970 -0.1801507614368114
1979 1971 -0.7015289773247475
1982 1971 -0.5455793939024018
1991 1971 0.3154087954344309
1975 1972 -0.5671864986114078
1990 1972 0.9200415051728874
1994 1972 -0.8816492202520829
2014 1973 0.0075991088595233
2020 1973 -0.5043183690908536
2066 1973 -0.2613299966429640
1982 1974 0.3634449293496507
1989 1974 -0.9984130375072482
1995 1974 0.8300119022186956
1984 1975 -0.7249671926023133
1994 1975 -0.3284096804712058
1998 1975 -0.2803735465559862
2013 1976 -0.4355296487319559
2014 1976 -0.0436719870601520
2046 1976 0.3209631641590625
1987 1977 -0.3511764885402997
2018 1977 0.2740867336039308
2037 1977 -0.0505081331827754
1999 1978 -0.8641315958128605
2013 1978 -0.6597186193426313
2022 1978 -0.7679982909634693
1985 1979 -0.3454390087588122
1991 1979 0.2569963682973724
2000 1979 -0.6499526963103122
1988 1980 0.8377025666066469
2004 1980 0.6709494308297983
2008 1980 -0.5073702200384533
1990 1981 -0.5666371654408399
1999 1981 -0.7167271950437941
2007 1981 -0.9516586809900205
1991 1982 -0.1844233527634510
1995 1982 0.3059480574968718
2003 1982 0.5203711050752282
2002 1983 -0.3640552995391705
2212 1983 -0.4338816492202521
2485 1983 -0.7164220099490342
1998 1984 0.5906247138889738
2010 1984 -0.6588030640583513
2000 1985 -0.0748008667256691
2006 1985 0.1138645588549456
1997 1986 -0.6184575945310831
2075 1986 0.1117282631916257
2082 1986 -0.7809381389812922
2227 1986 0.3108310190130315
1992 1987 -0.1288186284981842
2037 1987 -0.5482039857173375
2081 1987 0.6190679647206030
1989 1988 0.3070467238380077
2008 1988 -0.0768150883510850
2011 1988 -0.7125766777550584
1995 1989 0.7978453932309946
2009 1989 -0.2661519211401715
2011 1989 0.6951200903347881
1994 1990 0.9904171880245369
2007 1990 0.1054414502395702
2015 1990 -0.8565630054628132
2000 1991 0.7228308969389936
2003 1991 -0.6240119632557146
2012 1991 -0.1724600970488601
2005 1992 0.4846644489883114
2081 1992 -0.2571184423352764
2124 1992 -0.5146336252937407
1997 1993 -0.9121677297280801
2020 1993 0.6450697347941527
2051 1993 -0.6839503158665731
1998 1994 0.9656971953489792
2015 1994 0.9578844569231240
2017 1994 -0.6276131473738822
2003 1995 0.3136387218848231
2009 1995 -0.1398663289284952
2016 1995 0.3357951597643971
2055 1996 -0.1131321146275216
2657 1996 0.3298135319071016
2963 1996 0.6213873714407789
2051 1997 -0.8420972319711906
2075 1997 -0.5024262215033417
2010 1998 -0.9174779503769036
2017 1998 0.1591540269173253
2023 1998 -0.4956511123996704
2007 1999 0.5357524338511308
2022 1999 0.8646809289834285
2029 1999 0.7364421521652882
2006 2000 0.1616565446943572
2012 2000 0.9159520249031037
2019 2000 0.1088595233008820
2004 2001 -0.4750205999938963
2018 2001 -0.7948545793023469
2035 2001 0.6398205511642812
2044 2001 -0.8720664082766197
2005 2002 -0.3658864101077304
2200 2002 0.1633655812250130
2485 2002 -0.4473708304086429
2012 2003 0.0937833796197394
2016 2003 0.4245429853205969
2021 2003 0.3265175328836940
2008 2004 0.6672872096926785
2034 2004 0.3165684987945190
2035 2004 -0.0806604205450606
2124 2005 0.7627491073335979
2200 2005 0.3662526322214423
2019 2006 0.8879970702230904
2024 2006 -0.8741416669209876
2015 2007 0.6034424878688924
2029 2007 -0.2043824579607532
2031 2007 -0.2504043702505570
2011 2008 -0.9202246162297434
2032 2008 -0.8396557512131108
2034 2008 0.7628711813715019
2011 2009 -0.7502365184484390
2016 2009 0.4244819483016449
2026 2009 0.4382152775658437
2027 2009 0.4506668294320506
2023 2010 -0.7485885189367352
2030 2010 0.3379924924466688
2027 2011 -0.3970152897732475
2032 2011 0.2601702932828760
2019 2012 -0.1473128452406385
2021 2012 0.6201666310617389
2028 2012 -0.0291451765495773
2022 2013 -0.9045991393780328
2046 2013 0.7841731009857478
2048 2013 -0.2475356303598132
2046 2014 0.0787682729575487
2066 2014 0.4015320291756950
2114 2014 -0.4566484572893460
2017 2015 0.7432782982879116
2031 2015 -0.6008789330729087
2038 2015 -0.7305215613269448
2021 2016 -0.6691183202612385
2026 2016 -0.4302194280831324
2033 2016 0.2625507370220039
2023 2017 0.9199194311349834
2038 2017 0.8492996002075259
2040 2017 0.0315256202887051
2037 2018 0.5489364299447614
2044 2018 0.8778649250770592
2068 2018 -0.9719229712820826
2024 2019 -0.1745353556932280
2028 2019 0.7114169743949705
2036 2019 0.1520126956999419
2051 2020 0.7368083742790001
2066 2020 -0.3434858241523484
2102 2020 -0.3053376873073519
2028 2021 -0.2699972533341471
2033 2021 0.5487533188879055
2039 2021 0.1960814233832819
2029 2022 -0.6902371288186284
2048 2022 -0.2974639118625446
2050 2022 0.6185186315500351
2030 2023 0.7001861629078037
2040 2023 -0.3704641865291299
2043 2023 -0.6708273567918943
2036 2024 -0.2651753288369396
2041 2024 0.1006805627613148
2082 2025 0.9647816400646991
2302 2025 -0.6420789208655049
2425 2025 -0.3882869960631122
2027 2026 0.3814508499404889
2033 2026 0.9859614856410412
2042 2026 0.9111911374248483
2045 2026 -0.5193945127719962
2032 2027 -0.9478133487960448
2042 2027 0.5514999847407454
2049 2027 0.2506485183263649
2036 2028 -0.9543443098239082
2039 2028 0.5327005829035310
2047 2028 0.8056581316568499
2031 2029 -0.2664571062349315
2050 2029 0.8649861140781885
2057 2029 -0.7408368175298319
2043 2030 -0.8916592913602099
2054 2030 0.2729880672627949
2038 2031 0.2197027497177038
2057 2031 0.3264564958647420
2060 2031 0.3600268562883389
2034 2032 -0.3854792931913206
2049 2032 -0.4656208990752891
2053 2032 0.4772789696951201
2039 2033 -0.7174596392712180
2045 2033 -0.2584002197332682
2052 2033 -0.5893429364909818
2035 2034 -0.7480391857661672
2053 2034 0.2207403790398876
2058 2034 -0.2775658436841945
2044 2035 -0.6640522476882229
2058 2035 -0.8892178106021302
2067 2035 0.0250556962797936
2041 2036 -0.6889553514206366
2047 2036 0.1313821832941680
2056 2036 0.3415326395458846
2068 2037 0.5796380504776146
2081 2037 -0.3856624042481765
2144 2037 -0.8001647999511704
2040 2038 -0.4355906857509080
2060 2038 0.5363017670216987
2064 2038 0.1382793664357433
2047 2039 0.6378673665578174
2052 2039 -0.3526413769951475
2059 2039 0.8192693868831447
2043 2040 0.5253151036103396
2064 2040 -0.7275917844172490
2065 2040 -0.1556138798181097
2056 2041 -0.5389263588366344
2061 2041 0.2962431714835048
2045 2042 0.6873073519089328
2049 2042 -0.0320139164403210
2062 2042 0.3332926419873654
2063 2042 0.9075289162877285
2054 2043 0.2988677632984404
2065 2043 -0.5894650105288858
2070 2043 -0.6657612842188787
2067 2044 -0.5616321298867764
2068 2044 -0.4539017914365062
2090 2044 0.8247627185888242
2052 2045 0.5964842677083650
2062 2045 0.2190923795281838
2069 2045 0.2560197759941405
2048 2046 -0.7224646748252815
2103 2046 0.2757957701345866
2114 2046 -0.2874538407544176
2056 2047 -0.7526779992065188
2059 2047 0.6885891293069246
2072 2047 0.4853358561967833
2050 2048 0.9634998626667073
2095 2048 0.2352671895504623
2103 2048 0.3666188543351543
2053 2049 0.9362773522141179
2063 2049 0.9251075777459028
2073 2049 -0.9011810663167211
2057 2050 -0.5437482833338420
2080 2050 0.8482619708853421
2095 2050 0.9783318582720419
2075 2051 -0.4247871333964049
2102 2051 0.1069063386944182
2146 2051 0.6919461653492844
2059 2052 -0.0454420606097599
2069 2052 -0.5590685750907926
2074 2052 -0.8226874599444562
2058 2053 0.3258461256752221
2073 2053 -0.0254829554124577
2078 2053 0.2449110385448774
2070 2054 -0.7126377147740104
2076 2054 -0.9096652119510483
2466 2055 0.4164250617999816
2963 2055 0.6541642506179999
3992 2055 -0.9696035645619068
2061 2056 0.4213080233161413
2072 2056 0.3253578295236061
2077 2056 0.4758751182592242
2060 2057 -0.8420361949522386
2080 2057 0.5455183568834499
2094 2057 0.5766472365489670
2067 2058 -0.5828730124820704
2078 2058 0.5498519852290413
2085 2058 -0.1792962431714835
2072 2059 0.1055024872585224
2074 2059 -0.3542893765068514
2079 2059 0.7816095461897641
2064 2060 0.2829981383709219
2093 2060 -0.4841761528366955
2094 2060 0.2144535660878322
2077 2061 -0.8977629932554094
2084 2061 -0.0367748039185766
2063 2062 0.3801080355235451
2069 2062 0.4105655079805903
2083 2062 0.6351817377239295
2086 2062 -0.4642780846583453
2073 2063 -0.4565874202703940
2083 2063 0.0943937498092593
2065 2064 -0.3868831446272164
2092 2064 -0.1384014404736472
2093 2064 0.7438886684774315
2070 2065 0.0878017517624439
2088 2065 0.4618366039002655
2092 2065 -0.0111392559587390
2102 2066 0.8617511520737327
2114 2066 0.6767479476302378
2157 2066 0.5432599871822261
2085 2067 0.1723380230109561
2090 2067 -0.8898892178106022
2116 2067 -0.7109897152623066
2090 2068 -0.6282235175634022
2144 2068 -0.5247047334208197
2153 2068 0.4798425244911038
2074 2069 -0.5892818994720298
2086 2069 0.1154515213476974
2091 2069 0.5159764397106845
2076 2070 -0.2500991851557970
2088 2070 -0.1969969786675618
2089 2070 0.1945554979094821
3954 2071 0.9208960234382153
4210 2071 -0.6221808526871548
4535 2071 0.0826746421704765
2077 2072 0.7910702841273232
2079 2072 0.0476393932920316
2087 2072 -0.4192327646717734
2078 2073 -0.2718894009216590
2083 2073 0.0800500503555406
2099 2073 0.5399639881588183
2079 2074 -0.0791955320902127
2091 2074 0.5738395336771751
2096 2074 -0.0034485915707877
2146 2075 -0.7229529709768975
2227 2075 0.7063509018219549
2433 2075 -0.1445661793877987
2089 2076 -0.6497085482345042
2098 2076 -0.7197180089724418
2084 2077 -0.4771568956572161
2087 2077 -0.1317484054078799
2097 2077 -0.9000213629566332
2085 2078 -0.8609576708273567
2099 2078 -0.7951597643971069
2108 2078 -0.6985381633960998
2087 2079 0.6010620441297647
2096 2079 -0.4811853389080477
2100 2079 0.5614490188299204
2094 2080 0.3107089449751275
2095 2080 0.6377452925199134
2112 2080 -0.6862086855677969
2124 2081 0.1686758018738366
2144 2081 0.3911557359538560
2412 2081 0.0533158360545671
2227 2082 -0.9934080019531846
2425 2082 0.5408795434430982
2086 2083 -0.8857997375408185
2099 2083 -0.2093264564958648
2104 2083 -0.2027954954680014
2097 2084 0.9929807428205206
2101 2084 0.7900936918240913
2108 2085 -0.8451490829187902
2116 2085 0.0643635364848780
2091 2086 0.5070039979247414
2104 2086 -0.8819544053468429
2111 2086 0.1114230780968657
2097 2087 -0.2789086581011383
2100 2087 0.9150364696188238
2106 2087 0.8881801812799464
2089 2088 0.4319284646137882
2092 2088 0.0276192510757776
2105 2088 -0.2891018402661214
2110 2088 0.7956480605487228
2098 2089 -0.4999237037263100
2105 2089 -0.5764641254921110
2107 2089 0.8032776879177221
2116 2090 0.4316843165379802
2153 2090 -0.4095889156773583
2096 2091 0.9422589800714134
2109 2091 0.5229956968901639
2111 2091 -0.4879604480117191
2093 2092 0.4316232795190282
2110 2092 -0.2306283761101108
2117 2092 -0.8037659840693381
2094 2093 0.4066591387676626
2117 2093 -0.1318704794457839
2125 2093 0.5094454786828211
2112 2094 -0.4028138065736869
2125 2094 0.0321970274971770
2103 2095 0.4317453535569322
2112 2095 0.7203283791619617
2134 2095 0.5917233802301096
2100 2096 0.1712393566698203
2109 2096 0.6356089968565934
2113 2096 0.2813501388592181
2101 2097 -0.7150181585131382
2106 2097 0.2784203619495225
2115 2097 0.8037659840693381
2107 2098 -0.8449049348429822
2118 2098 -0.0142521439252907
2104 2099 -0.1612292855616931
2108 2099 0.2480849635303812
2139 2099 -0.8937345500045778
2145 2099 -0.7007354960783716
2106 2100 0.3382366405224768
2113 2100 -0.3946958830530717
2119 2100 -0.0596026490066225
2115 2101 -0.3382366405224769
2120 2101 -0.0894497512741478
2146 2102 -0.8529618213446455
2157 2102 -0.1759392071291238
2265 2102 0.6287728507339700
2114 2103 0.7223426007873774
2134 2103 0.8746299630726035
2221 2103 0.2504043702505570
2111 2104 0.2296517838068788
2137 2104 0.1586657307657093
2139 2104 -0.7883236182744835
2107 2105 -0.7889950254829554
2110 2105 -0.2983184301278725
2123 2105 -0.1276589251380963
2126 2105 0.1071504867702262
2115 2106 -0.8624225592822047
2119 2106 -0.0853602710043642
2127 2106 -0.2413098544267098
2118 2107 -0.6395153660695212
2123 2107 -0.8242133854182562
2128 2107 0.8001647999511703
2116 2108 0.9186376537369916
2145 2108 -0.0176091799676504
2172 2108 0.3531296731467635
2111 2109 0.0967131565294350
2113 2109 0.6725974303415021
2121 2109 -0.5971556749168371
2130 2109 -0.7956480605487228
2117 2110 0.7241126743369855
2126 2110 -0.3121127964110233
2135 2110 0.3399456770531328
2130 2111 0.4166081728568376
2137 2111 -0.9008148442030092
2125 2112 0.2815332499160741
2134 2112 0.1405377361369671
2158 2112 0.0554521317178869
2119 2113 -0.2947172460097048
2121 2113 -0.0384838404492325
2131 2113 0.4066591387676626
2157 2114 -0.0630207220679342
2221 2114 0.2283089693899349
2327 2114 -0.7312540055543687
2120 2115 -0.2806787316507462
2127 2115 0.7056794946134830
2133 2115 0.5715201269569994
2153 2116 -0.0173039948728904
2172 2116 -0.7273476363414411
2240 2116 0.1825922421948911
2125 2117 0.0618610187078463
2135 2117 0.7522507400738547
2152 2117 0.2305673390911589
2128 2118 0.5450910977507859
2132 2118 0.1604358043153173
2127 2119 0.2148808252204963
2131 2119 0.6183965575121311
2138 2119 0.9014862514114810
2133 2120 0.9885860774559772
2140 2120 0.6674703207495345
2130 2121 0.5627307962279122
2131 2121 0.8223212378307443
2136 2121 0.9839472640156255
3765 2122 0.3491012298959320
4530 2122 -0.3091830195013275
4575 2122 -0.6083254493850521
2126 2123 -0.0031434064760277
2128 2123 -0.5993530075991089
2141 2123 -0.4970549638355662
2143 2123 -0.6600238044373913
2200 2124 -0.8581499679555651
2412 2124 -0.4379100924710837
4711 2124 0.5301370281075473
2152 2125 0.8218329416791283
2158 2125 -0.2858058412427137
2184 2125 0.6710715048677023
2135 2126 -0.9113132114627521
2141 2126 0.4001281777397991
2133 2127 0.4864955595568712
2138 2127 0.0239570299386578
2148 2127 -0.5537583544419691
2132 2128 -0.1991332743308817
2143 2128 -0.3039948728904081
2147 2128 -0.3360393078402051
2302 2129 0.2090823084200568
2657 2129 -0.0010071108127079
3915 2129 -0.9638050477614674
4010 2129 -0.3439130832850124
2136 2130 0.7455977050080873
2137 2130 -0.8009582811975463
2151 2130 -0.0353709524826807
2156 2130 0.4138004699850459
2136 2131 0.4567094943082979
2138 2131 0.2731101413006989
2149 2131 -0.3603320413830988
2147 2132 0.1387676625873593
2150 2132 0.7072664571062350
2140 2133 0.2178106021301920
2148 2133 0.7986999114963225
2154 2133 0.4363231299783319
2158 2134 0.2291024506363109
2221 2134 -0.8061464278084658
2267 2134 0.8901333658864101
2141 2135 0.1691640980254525
2152 2135 -0.1899777214880826
2160 2135 -0.2899563585314493
2149 2136 0.7719046601763970
2151 2136 0.6120487075411236
2155 2136 -0.9198583941160314
2139 2137 -0.4864345225379193
2156 2137 0.2889797662282174
2166 2137 -0.0307321390423292
2148 2138 -0.7914975432599871
2149 2138 0.7509079256569109
2159 2138 -0.9579454939420758
2145 2139 0.3187658314767907
2166 2139 0.3220007934812463
2174 2139 0.9600207525864437
2154 2140 -0.3396404919583728
2162 2140 -0.9566026795251320
2143 2141 -0.5399639881588183
2160 2141 0.4573809015167700
2163 2141 -0.1094088564714499
4561 2142 -0.1857051301614430
4643 2142 -0.1236915189062167
4644 2142 -0.3178502761925107
2147 2143 0.8150578325754569
2163 2143 -0.8138981292153691
2164 2143 -0.4989471114230781
2153 2144 -0.9406720175786615
2412 2144 -0.4890591143528550
2540 2144 -0.1305276650288399
2172 2145 -0.6241340372936186
2174 2145 0.9457380901516770
2208 2145 -0.5359355449079867
2265 2146 0.7402874843592639
2433 2146 -0.1262550737022003
2587 2146 0.2194586016418958
2150 2147 -0.9518417920468765
2161 2147 0.6509292886135440
2164 2147 -0.4836268196661275
2154 2148 -0.9222388378551591
2159 2148 -0.6163823358867153
2167 2148 0.1042817468794823
2155 2149 0.2024903103732414
2159 2149 0.6033814508499404
2168 2149 -0.1122775963621937
2161 2150 -0.1463362529374065
2165 2150 -0.3423261207922605
2155 2151 0.6628925443281350
2156 2151 0.8284249397259438
2170 2151 0.4907071138645589
2160 2152 0.9205298013245033
2184 2152 0.7003692739646596
2195 2152 -0.8053529465620899
2240 2153 0.0843226416821803
2540 2153 -0.3245033112582781
2162 2154 0.9876094851527450
2167 2154 -0.8041322061830500
2175 2154 -0.0667439802240058
2168 2155 -0.7534104434339427
2170 2155 0.8936124759666737
2187 2155 -0.2974639118625446
2166 2156 -0.5063936277352215
2170 2156 0.0631427961058382
2189 2156 -0.2635273293252357
2265 2157 -0.0594195379497665
2327 2157 0.5452742088076419
2457 2157 -0.5887325663014618
2184 2158 0.7801446577349163
2267 2158 -0.2472914822840052
2319 2158 -0.3408612323374126
2167 2159 0.2826929532761620
2168 2159 -0.0629596850489822
2180 2159 -0.2621234778893399
2163 2160 -0.9728995635853145
2194 2160 -0.8663289284951323
2195 2160 -0.2584002197332682
2164 2161 -0.4169133579515977
2165 2161 0.7184972685934019
2169 2161 -0.6330454420606098
2173 2161 0.1550035096285898
2175 2162 -0.1018402661214026
2183 2162 0.4241767632068849
2164 2163 0.3482467116306041
2186 2163 0.7643971068453017
2194 2163 -0.1324198126163518
2173 2164 -0.2482070375682852
2186 2164 0.7708670308542132
2169 2165 -0.0602130191961424
2171 2165 0.0309152500991852
2174 2166 -0.8655354472487564
2189 2166 0.1806390575884274
2217 2166 -0.4901577806939909
2175 2167 0.5048066652424696
2180 2167 0.4146549882503738
2197 2167 -0.5271462141788995
2180 2168 0.5199438459425643
2187 2168 -0.0412915433210242
2214 2168 -0.8331858272041993
2171 2169 0.1750236518448438
2173 2169 0.6347544785912655
2176 2169 -0.3426923429059725
2187 2170 -0.1791131321146275
2189 2170 -0.6732078005310220
2241 2170 0.7480391857661672
2176 2171 -0.1185644093142491
2179 2171 -0.3516037476729637
2208 2172 -0.2296517838068789
2240 2172 -0.6385387737662893
2329 2172 -0.9593493453779718
2176 2173 0.6754051332132938
2186 2173 0.6633198034607990
2198 2173 0.2962431714835048
2213 2173 0.7900936918240913
2208 2174 -0.4174626911221656
2217 2174 0.0267647328104494
4705 2174 0.2984405041657765
2183 2175 -0.5374614703817866
2197 2175 0.6569719534897915
2222 2175 0.1412701803643910
2179 2176 0.1018402661214026
2198 2176 -0.8689535203100680
2201 2176 -0.1433454390087588
2178 2177 -0.3975646229438154
2181 2177 -0.4896694845423749
2192 2177 0.6115604113895077
2199 2177 -0.9489730521561327
2182 2178 0.8497268593401899
2190 2178 0.0621051667836543
2192 2178 -0.2798852504043703
2181 2179 0.4999847407452620
2201 2179 0.9799798577837457
2202 2179 -0.1614734336375011
2197 2180 -0.9034394360179449
2214 2180 0.6327402569658498
2238 2180 0.6589861751152073
2199 2181 -0.0200506607257301
2202 2181 0.9066133610034486
2185 2182 -0.8087099826044496
2190 2182 0.9429303872798853
2191 2182 -0.5287942136906034
2222 2183 0.7357097079378643
2233 2183 0.7991271706289864
2195 2184 0.8225043488876003
2319 2184 -0.2410046693319499
2338 2184 -0.0129703665272988
2188 2185 -0.9827875606555376
2191 2185 -0.6976226081118198
2196 2185 -0.2361217078157902
2194 2186 -0.9047212134159368
2213 2186 -0.0472731711783196
2248 2186 0.8283639027069918
2214 2187 0.8491775261696219
2241 2187 0.8698690755943479
2287 2187 -0.5207983642078922
2193 2188 -0.1260719626453444
2196 2188 0.3095492416150396
2203 2188 0.2791528061769464
2217 2189 -0.8661458174382763
2241 2189 -0.4991912594988861
2273 2189 0.9417096469008455
2191 2190 -0.0110171819208350
2192 2190 0.7521286660359507
2205 2190 -0.2965483565782647
2207 2190 -0.7408978545487839
2196 2191 -0.0326242866298410
2205 2191 0.9036835840937529
2206 2191 0.3519089327677236
2199 2192 -0.0854213080233162
2207 2192 0.4680623798333690
2218 2192 -0.8085268715475936
2203 2193 0.5444196905423140
2204 2193 0.8916592913602099
2209 2193 0.7056794946134830
2195 2194 -0.5232398449659719
2248 2194 -0.8170720542008728
2296 2194 -0.9719229712820826
2296 2195 0.5344706564531387
2338 2195 0.0918912320322276
2203 2196 0.5838496047853023
2206 2196 0.4346751304666281
2210 2196 -0.5559556871242408
2222 2197 0.1043427838984343
2238 2197 -0.0639362773522141
2256 2197 -0.6302987762077701
2201 2198 0.1833857234412670
2213 2198 -0.3059480574968718
2243 2198 0.4194158757286295
2202 2199 0.1344950712607196
2218 2199 -0.6735740226447340
2229 2199 -0.2935575426496170
2485 2200 0.7958922086245308
3747 2200 -0.4503616443372905
4711 2200 0.0919522690511796
2202 2201 0.4433423871578113
2243 2201 -0.7144077883236183
2245 2201 0.5767082735679190
2229 2202 -0.2707296975615711
2245 2202 0.7554246650593586
2209 2203 0.5410016174810022
2210 2203 0.6462294381542406
2216 2203 0.7832575457014679
2209 2204 -0.5029145176549576
2211 2204 -0.4695272682882168
2219 2204 -0.7439497054963835
2206 2205 0.5506454664754172
2207 2205 0.4082461012604144
2215 2205 -0.8544877468184454
2210 2206 0.4009826960051270
2215 2206 0.0402539139988403
2220 2206 0.4828333384197516
2215 2207 -0.6577654347361674
2218 2207 0.3971984008301035
2231 2207 0.7495651112399671
2329 2208 0.8896450697347942
2341 2208 0.6309091463972900
4705 2208 0.6641132847071749
2216 2209 0.5701773125400555
2219 2209 0.5056001464888455
2224 2209 -0.2743919186986907
2216 2210 0.0248115482039857
2220 2210 -0.8651692251350445
2225 2210 -0.8753013702810755
2219 2211 0.1669057283242286
2223 2211 0.0898159733878596
2226 2211 -0.0817590868861965
2470 2212 0.4061708426160466
2485 2212 -0.2713400677510910
3826 2212 0.2839747306741538
3989 2212 -0.5958128604998931
2243 2213 -0.3780938138981292
2248 2213 -0.5762199774163030
2277 2213 0.0815149388103884
2238 2214 0.6318857387005219
2287 2214 0.2687765129551072
2294 2214 -0.0808435316019166
2220 2215 -0.9898068178350169
2231 2215 -0.5666982024597919
2235 2215 0.6055787835322124
2224 2216 0.1736808374279000
2225 2216 -0.0126651814325388
2228 2216 0.6749168370616778
2273 2217 0.1788079470198676
2307 2217 0.1112399670400097
4705 2217 0.5504623554185613
2229 2218 0.8150578325754569
2231 2218 -0.6010010071108127
2251 2218 0.1418195135349589
2224 2219 -0.4548173467207861
2226 2219 0.0912198248237557
2230 2219 0.2306283761101109
2225 2220 -0.6580706198309274
2234 2220 -0.1675160985137486
2235 2220 0.6481215857417524
2267 2221 -0.9427472762230292
2327 2221 -0.8914761803033540
2449 2221 0.5781121250038148
2473 2221 -0.0805993835261086
2233 2222 -0.2143925290688803
2256 2222 0.0976897488326671
2275 2222 -0.3139439069795831
2226 2223 -0.4234443189794610
2232 2223 0.2498550370799890
2237 2223 -0.7392498550370800
2228 2224 -0.0602130191961424
2230 2224 -0.6437879573961608
2236 2224 -0.0204168828394421
2228 2225 0.7911313211462752
2234 2225 -0.5874507889034699
2239 2225 0.0787682729575487
2230 2226 0.3935361796929837
2237 2226 -0.2068239387188330
2242 2226 -0.2903225806451613
2425 2227 -0.8288521988586077
2433 2227 -0.5189672536393323
3353 2227 0.4871669667653431
3431 2227 0.6058229316080204
2236 2228 -0.9938962981048005
2239 2228 0.0352488784447769
2244 2228 -0.2396008178960539
2245 2229 0.6385387737662893
2251 2229 -0.6299325540940581
2264 2229 -0.5013275551622058
2236 2230 -0.1198461867122410
2242 2230 0.2221442304757835
2246 2230 0.3726004821924498
2235 2231 0.4849696340830714
2251 2231 -0.8219550157170323
2260 2231 0.8432569353312784
2237 2232 -0.8903775139622181
2247 2232 0.0391552476577044
2249 2232 0.5201269569994202
2275 2233 0.9006927701651051
2291 2233 0.3934751426740317
2235 2234 0.6982940153202917
2239 2234 0.3745536667989136
2255 2234 -0.2472914822840052
2255 2235 0.8611407818842127
2260 2235 -0.5847041230506302
2244 2236 0.2892239143040254
2246 2236 0.5337382122257148
2250 2236 0.7745902890102847
2242 2237 -0.5906857509079256
2249 2237 -0.4075136570329905
2252 2237 -0.6971343119602038
2256 2238 0.8245796075319682
2294 2238 -0.9965819269386883
2306 2238 -0.8714560380870998
2244 2239 -0.9128391369365521
2254 2239 0.2511368144779809
2255 2239 0.5137791070284128
2329 2240 0.8406933805352947
2499 2240 0.3820612201300089
2540 2240 -0.4072084719382305
2273 2241 -0.7484664448988312
2287 2241 -0.9854121524704733
2345 2241 0.6707052827539903
2246 2242 0.3772392956328012
2252 2242 -0.2986846522415845
2253 2242 -0.0050355540635395
2245 2243 0.5262916959135715
2277 2243 -0.9343241676076540
2279 2243 0.9369487594225898
2250 2244 0.1858882412182989
2254 2244 0.8579668568987091
2264 2245 -0.4357127597888120
2279 2245 0.3387249366740928
2283 2245 -0.8496658223212379
2250 2246 0.8645588549455245
2253 2246 -0.3862117374187445
2257 2246 -0.3260292367320780
2249 2247 -0.3808404797509689
2258 2247 -0.7429120761741996
2259 2247 -0.6292001098666341
2277 2248 0.6026490066225165
2296 2248 -0.7775200659199805
2358 2248 0.3142490920743430
2252 2249 -0.5070039979247414
2259 2249 -0.3278603473006378
2261 2249 -0.2432630390331736
2254 2250 -0.6689352092043824
2257 2250 -0.9592272713400678
2263 2250 -0.1377300332651753
2260 2251 0.7990661336100344
2264 2251 -0.9736930448316904
2276 2251 0.5079805902279733
2253 2252 0.7437055574205755
2261 2252 -0.5178685872981963
2262 2252 -0.5322122867519150
2257 2253 0.2932523575548571
2262 2253 0.3122348704489273
2266 2253 -0.7586596270638142
2255 2254 -0.9191869869075594
2263 2254 -0.0733970152897733
2269 2254 0.5613269447920164
2260 2255 -0.6526993621631519
2269 2255 -0.6993926816614277
2280 2255 0.3610644856105227
2275 2256 -0.1446272164067507
2306 2256 0.0360423596911528
2320 2256 0.4319895016327402
2263 2257 0.6441541795098726
2266 2257 0.1662953581347086
2270 2257 -0.9509872737815485
2259 2258 -0.7215491195410015
2268 2258 -0.7199011200292977
2271 2258 0.2357554857020783
2261 2259 0.3965269936216316
2271 2259 0.1036103396710104
2272 2259 -0.4031800286873989
2276 2260 0.7260048219244972
2280 2260 -0.8447218237861263
2293 2260 -0.5136570329905088
2262 2261 -0.5717642750328074
2272 2261 0.4211859492782373
2274 2261 -0.8854335154271066
2266 2262 0.6343272194586016
2274 2262 0.4264961699270609
2278 2262 -0.4580523087252418
2269 2263 -0.9180272835474715
2270 2263 -0.2844630268257698
2281 2263 -0.6854152043214210
2276 2264 -0.7639088106936858
2283 2264 0.6619769890438552
2298 2264 -0.2269051179540391
2457 2265 0.3940855128635516
2587 2265 -0.6926175725577564
2994 2265 -0.6804712057863094
2270 2266 0.7838679158909878
2278 2266 -0.3818170720542009
2282 2266 -0.7553025910214545
2319 2267 -0.4581743827631458
2449 2267 -0.5756706442457351
2467 2267 -0.4557329020050661
2271 2268 0.6153447065645314
2284 2268 -0.0906094546342356
2286 2268 -0.8938566240424818
2280 2269 -0.5224463637195960
2281 2269 -0.1167332987456893
2295 2269 0.8904995880001221
2281 2270 -0.1566515091402936
2282 2270 0.1190527054658650
2288 2270 -0.2837916196172979
2272 2271 -0.8295236060670796
2284 2271 0.5144505142368847
2285 2271 -0.9707022309030426
2274 2272 -0.1567735831781976
2285 2272 -0.6712546159245583
2289 2272 -0.9185766167180395
2307 2273 0.2219611194189275
2345 2273 -0.4742881557664723
2389 2273 0.6760155034028139
2278 2274 -0.6716818750572222
2289 2274 0.1975463118381298
2290 2274 0.7040925321207312
2291 2275 0.0638142033143101
2320 2275 -0.3183996093630788
2339 2275 -0.2676778466139714
2293 2276 -0.1172826319162572
2298 2276 0.4799035615100558
2316 2276 0.6753440961943418
2279 2277 -0.2673116245002594
2325 2277 -0.1841181676686910
2358 2277 0.2404553361613819
2282 2278 0.6233405560472427
2290 2278 0.4691000091555528
2292 2278 -0.9431745353556932
2283 2279 0.5931882686849574
2312 2279 0.0609454634235664
2325 2279 0.5007782219916379
2293 2280 0.4324777977843561
2295 2280 0.5427106540116580
2308 2280 0.5184179204687642
2288 2281 0.6049684133426922
2295 2281 0.5066377758110294
2300 2281 0.7109897152623066
2288 2282 0.1893063142796105
2292 2282 -0.9778435621204260
2297 2282 -0.9061250648518326
2298 2283 -0.9544053468428602
2312 2283 0.0558183538315988
2321 2283 -0.6696066164128545
2285 2284 0.8870204779198585
2286 2284 0.1885738700521866
2299 2284 -0.9666737876522110
2303 2284 -0.7390057069612720
2289 2285 0.2594988860744041
2299 2285 -0.6834009826960051
2301 2285 -0.3025299844355601
2303 2286 -0.2320322275460066
2304 2286 -0.6928006836146123
2294 2287 0.2682882168034912
2345 2287 -0.8449049348429822
2385 2287 0.6641132847071749
2408 2287 0.1904660176396984
2297 2288 0.7672048097170934
2300 2288 0.6231574449903867
2290 2289 0.1358989226966154
2301 2289 -0.1611072115237892
2305 2289 0.5561387981810968
2292 2290 0.2761009552293465
2305 2290 0.4498123111667227
2309 2290 0.0830408642841884
2339 2291 -0.7459028901028474
2352 2291 0.9260231330301829
2297 2292 -0.8374584185308389
2309 2292 -0.7266151921140171
2310 2292 -0.2520523697622609
2308 2293 -0.9027069917905209
2316 2293 0.1474959562974945
2335 2293 0.4509109775078586
2306 2294 -0.0683309427167577
2374 2294 -0.9421979430524613
2385 2294 -0.2495498519852291
2300 2295 0.1300393688772241
2308 2295 0.6063722647785883
2313 2295 0.3701590014343699
2338 2296 0.3863338114566484
2358 2296 0.7582934049501022
2445 2296 0.3525193029572435
2300 2297 0.5243995483260597
2310 2297 0.8901333658864101
2311 2297 0.9135715811639760
2316 2298 -0.8127384258552812
2321 2298 -0.7839289529099399
2340 2298 -0.0657673879207740
2301 2299 0.3025299844355602
2303 2299 -0.1802728354747154
2314 2299 -0.1694082461012604
2315 2299 -0.1756340220343638
2311 2300 -0.3777886288033693
2313 2300 0.3162022766808068
2322 2300 0.6974394970549638
2305 2301 0.9873653370769371
2314 2301 0.3472090823084200
2318 2301 0.9880977813043610
2425 2302 -0.3238319040498062
3738 2302 0.4622028260139774
3915 2302 0.5054780724509416
2304 2303 -0.6849269081698051
2315 2303 0.6374401074251534
2317 2303 0.7086092715231789
2317 2304 -0.4954069643238624
2323 2304 -0.2841578417310099
2309 2305 -0.5994750816370129
2318 2305 0.0430005798516802
2324 2305 0.0718100527970214
2320 2306 -0.0211493270668660
2372 2306 -0.3093661305581835
2374 2306 -0.9827265236365856
2341 2307 0.3689382610553300
2389 2307 -0.8339793084505753
2424 2307 0.6783959471419416
4705 2307 0.0505081331827752
2313 2308 0.3465987121189000
2330 2308 0.8016907254249703
2335 2308 0.6632587664418470
2310 2309 0.6276741843928342
2324 2309 -0.6013672292245247
2328 2309 0.1584215826899014
2311 2310 0.4648884548478653
2326 2310 -0.6230964079714347
2328 2310 -0.6202276680806910
2322 2311 -0.5460066530350658
2326 2311 -0.9167455061494797
2321 2312 -0.6616718039490952
2325 2312 0.0495925778984954
2364 2312 -0.2295297097689749
2366 2312 -0.8088930936613056
2322 2313 -0.2631611072115237
2330 2313 -0.9960936307870724
2333 2313 -0.4913785210730308
2315 2314 -0.9789422284615620
2318 2314 0.5711539048432874
2331 2314 -0.8421582689901426
2334 2314 0.1896725363933225
2317 2315 0.2093264564958648
2331 2315 -0.6683248390148625
2332 2315 -0.1582995086519975
2335 2316 -0.5822626422925504
2340 2316 0.1595202490310372
2361 2316 0.1602526932584614
2323 2317 0.5724356822412793
2332 2317 -0.1855830561235390
2336 2317 0.4880825220496230
2324 2318 0.7632984405041658
2334 2318 -0.4360789819025239
2337 2318 -0.2609637745292520
2338 2319 0.1143528550065616
2467 2319 -0.6086306344798120
2516 2319 0.0378734702597125
2339 2320 0.6059450056459244
2372 2320 0.5577257606738486
2378 2320 -0.8018127994628742
2340 2321 0.3974425489059115
2366 2321 0.6125980407116915
2326 2322 0.0044251838740197
2333 2322 0.2905056917020172
2343 2322 -0.6724753563035981
2336 2323 -0.3102816858424634
2342 2323 -0.2941679128391369
2328 2324 0.7819147312845240
2337 2324 -0.1173436689352092
2344 2324 -0.5127414777062289
2358 2325 -0.7278359324930570
2364 2325 -0.8366649372844630
2399 2325 -0.3740043336283456
2328 2326 -0.7927793206579791
2343 2326 0.4222846156193731
2346 2326 -0.6975615710928678
2457 2327 0.8816492202520829
2473 2327 -0.9026459547715689
2678 2327 -0.2462538529618213
2344 2328 0.3841364787743766
2346 2328 0.1622058778649251
2341 2329 0.4172185430463575
2452 2329 0.0945768608661153
2499 2329 -0.8949552903836177
2333 2330 0.8356273079622791
2335 2330 -0.3108310190130315
2351 2330 0.9995727408673361
2332 2331 0.4347972045045321
2334 2331 0.0918301950132756
2347 2331 0.0475783562730796
2348 2331 -0.0466017639698477
2336 2332 0.2556535538804285
2347 2332 0.2732322153386029
2349 2332 -0.5025482955412457
2343 2333 0.8441724906155583
2351 2333 0.1939451277199622
2363 2333 -0.3693655201879941
2337 2334 0.8966643269142736
2348 2334 -0.7324137089144567
2350 2334 -0.0447706534012878
2351 2335 0.5679189428388318
2361 2335 -0.5278786584063234
2375 2335 -0.7728812524796289
2342 2336 -0.5240333262123478
2349 2336 0.4368724631488998
2354 2336 0.6849269081698051
2344 2337 0.7898495437482833
2350 2337 0.2039551988280892
2355 2337 0.9459212012085330
2445 2338 0.2546159245582447
2516 2338 -0.7370525223548081
2533 2338 -0.1797845393230995
2352 2339 -0.7558519241920225
2378 2339 -0.8434400463881344
2388 2339 -0.5484481337931455
2361 2340 -0.2849513229773858
2366 2340 0.7441328165532395
2391 2340 -0.5953245643482772
2424 2341 -0.4385204626606036
2452 2341 -0.4700766014587847
4705 2341 0.7446211127048554
2354 2342 -0.5688955351420637
2357 2342 0.3086336863307597
2346 2343 0.0788903469954527
2363 2343 0.9177831354716635
2365 2343 0.8768883327738273
2346 2344 -0.2016968291268655
2355 2344 0.9611804559465316
2362 2344 -0.2788476210821863
2389 2345 -0.3953672902615436
2408 2345 -0.2636494033631397
2460 2345 0.1772820215460678
2362 2346 0.7983947264015625
2365 2346 0.7469405194250314
2348 2347 -0.4651326029236732
2349 2347 0.0622272408215583
2356 2347 0.4307077242347483
2359 2347 0.6018555253761406
2350 2348 -0.1249732963042085
2356 2348 0.8471633045442060
2360 2348 0.1014740440076907
2354 2349 -0.8112735374004334
2359 2349 0.2891018402661214
2367 2349 0.1623889889217811
2355 2350 -0.7631153294473098
2360 2350 0.2771996215704824
2368 2350 0.3251136814477982
2363 2351 -0.2051149021881772
2375 2351 0.1844233527634511
2384 2351 0.7004303109836116
2388 2352 0.8554643391216772
2394 2352 0.0112002929776909
2451 2353 0.4927823725089266
2470 2353 -0.2332529679250466
4032 2353 -0.9074068422498245
4166 2353 0.7603686635944700
2357 2354 0.5542466505935850
2367 2354 0.5812250129703664
2370 2354 -0.1248512222663045
2362 2355 0.0673543504135259
2368 2355 -0.3262123477889340
2373 2355 0.0895718253120517
2359 2356 0.7844172490615557
2360 2356 0.9309671315652943
2369 2356 0.6254768517105624
2371 2356 -0.3420819727164526
2370 2357 -0.3431196020386365
2377 2357 -0.9622180852687154
2399 2358 -0.2396008178960539
2445 2358 0.9993896298104801
2481 2358 0.0533158360545671
2367 2359 0.6055787835322124
2371 2359 0.7278359324930570
2376 2359 -0.7384563737907041
2368 2360 -0.7531662953581347
2369 2360 0.6669820245979186
2375 2361 0.8712729270302439
2391 2361 0.0860927152317881
2404 2361 0.2938627277443771
2365 2362 -0.8912930692464980
2373 2362 0.3641773735770746
2380 2362 0.4537797173986022
2365 2363 0.7490157780693991
2383 2363 0.7756889553514206
2384 2363 -0.8546098208563494
2366 2364 0.1272316660054322
2399 2364 -0.4128238776818141
2410 2364 0.9547715689565721
2380 2365 -0.2816553239539781
2383 2365 -0.4964445936460463
2391 2366 0.8955046235541857
2410 2366 0.5500350962858973
2370 2367 0.8757286294137394
2376 2367 0.6898709067049165
2381 2367 -0.1034272286141544
2369 2368 0.2616351817377238
2373 2368 0.4128238776818141
2379 2368 -0.3863338114566485
2371 2369 -0.1329691457869198
2379 2369 0.0809656056398205
2382 2369 -0.1086764122440260
2377 2370 -0.0183416241950743
2381 2370 -0.4873500778221992
2386 2370 -0.5848261970885342
2376 2371 -0.4833826715903196
2382 2371 0.8973967711416975
2387 2371 -0.6368907742545854
2374 2372 0.1528672139652700
2378 2372 0.1907101657155064
2411 2372 0.9529404583880123
2419 2372 0.7488937040314951
2379 2373 -0.0167546617023224
2380 2373 0.8032776879177221
2390 2373 0.6047853022858363
2395 2373 -0.0776696066164129
2385 2374 0.2826929532761620
2419 2374 -0.1759392071291238
2432 2374 -0.3521530808435316
2384 2375 0.8865321817682423
2402 2375 -0.1206396679586169
2404 2375 -0.7419354838709677
2381 2376 -0.4004333628345592
2387 2376 -0.5073702200384533
2392 2376 -0.9906613361003449
2386 2377 0.0266426587725455
2393 2377 -0.1937009796441542
2388 2378 0.3702810754722738
2411 2378 0.7772759178441724
2414 2378 0.8367870113223670
2382 2379 -0.9144871364482559
2390 2379 -0.7482222968230232
2383 2380 0.4324167607654041
2395 2380 -0.3987243263039033
2398 2380 -0.2848902859584338
2386 2381 0.2536393322550126
2392 2381 -0.2253181554612873
2396 2381 -0.5275124362926115
2387 2382 -0.4169133579515977
2390 2382 0.6776024658955657
2397 2382 -0.9987182226020082
2384 2383 0.5511947996459854
2398 2383 -0.6901760917996764
2400 2383 0.8937955870235297
2400 2384 -0.6924344615009004
2402 2384 -0.6657612842188787
2408 2385 0.1558580278939177
2432 2385 -0.1318704794457839
2461 2385 0.5543687246314890
2393 2386 0.9628894924771874
2396 2386 -0.4736167485580004
2401 2386 -0.1026947843867305
2392 2387 -0.6860255745109409
2397 2387 0.3342692342905973
2403 2387 -0.1127658925138096
2394 2388 -0.8876308481093783
2414 2388 -0.3920712912381359
2422 2388 -0.8611407818842127
2424 2389 -0.0976287118137150
2460 2389 -0.6846217230750451
2512 2389 -0.3517868587298196
2395 2390 0.8861049226355784
2397 2390 -0.3929258095034639
2407 2390 -0.2900173955504013
2404 2391 0.8954435865352337
2410 2391 0.9806512649922179
2463 2391 0.4287545396282846
2396 2392 0.0890835291604357
2403 2392 0.7450483718375194
2405 2392 -0.0877407147434919
2401 2393 -0.1321146275215919
2406 2393 0.0422070986053040
2422 2394 -0.8438062685018464
2428 2394 0.6212652974028749
2398 2395 -0.3484908597064119
2407 2395 -0.2553483687856685
2413 2395 0.5334330271309549
2401 2396 0.1022064882351146
2405 2396 -0.8281197546311838
2409 2396 0.8916592913602099
2403 2397 -0.8249458296456801
2407 2397 0.3083895382549515
2418 2397 -0.9769280068361461
2400 2398 -0.6611835077974793
2413 2398 -0.3990905484176153
2420 2398 0.4199041718802454
2410 2399 0.4472487563707388
2480 2399 0.0130314035462509
2481 2399 0.0708334604937895
2402 2400 -0.4629963072603535
2420 2400 -0.4960783715323344
2426 2400 -0.3457441938535722
2406 2401 0.6075319681386762
2409 2401 -0.1379741813409833
2415 2401 -0.2255012665181433
2404 2402 -0.0468459120456557
2426 2402 -0.1644032105471969
2430 2402 -0.5679189428388318
2405 2403 0.4141666920987579
2417 2403 0.6447035126804408
2418 2403 -0.0502639851069674
2430 2404 0.4652546769615773
2463 2404 -0.6362804040650655
2409 2405 -0.8784752952665792
2416 2405 0.1239967040009766
2417 2405 0.3817560350352489
2415 2406 0.5350199896237067
2421 2406 0.1302224799340801
2413 2407 -0.3250526444288461
2418 2407 -0.4354686117130039
2427 2407 0.7804498428296762
2460 2408 0.1105075228125858
2461 2408 -0.7081820123905149
2503 2408 0.9197363200781274
2415 2409 -0.5394146549882504
2416 2409 -0.2571184423352764
2423 2409 -0.3550828577532273
2463 2410 -0.6992706076235237
2480 2410 0.4224677266762291
2414 2411 -0.7346720786156804
2419 2411 -0.3143711661122470
2440 2411 -0.1417584765160069
2446 2411 -0.8007141331217383
2540 2412 0.1217993713187049
3337 2412 -0.0495925778984955
4711 2412 -0.6216925565355388
2420 2413 -0.7534714804528947
2427 2413 -0.4947965941343425
2434 2413 -0.8187810907315287
2422 2414 -0.3288369396038697
2440 2414 0.0251777703176976
2442 2414 -0.6417737357707449
2421 2415 -0.4250923184911649
2423 2415 -0.9266335032197027
2431 2415 0.7448652607806634
2417 2416 0.3927426984466078
2423 2416 0.9733878597369305
2429 2416 -0.8737754448072756
2418 2417 0.5800042725913266
2429 2417 0.6915189062166205
2436 2417 -0.6912747581408124
2427 2418 0.4914395580919828
2436 2418 -0.8287301248207037
2439 2418 -0.5452131717886899
2432 2419 -0.3859065523239845
2446 2419 -0.8315988647114475
2462 2419 0.2243415631580554
2426 2420 -0.5463728751487777
2434 2420 0.9133274330881680
2438 2420 -0.9251686147648549
2431 2421 0.0185857722708822
2437 2421 0.7527390362254707
2428 2422 -0.6975615710928678
2442 2422 0.0524002807702872
2450 2422 -0.3606372264778588
2429 2423 -0.7347941526535844
2431 2423 0.5348979155858027
2435 2423 -0.6387218848231453
2452 2424 0.7444380016479994
2512 2424 0.7025055696279794
2600 2424 0.4231391338847010
3431 2425 -0.2744529557176427
3738 2425 -0.3215735343485824
2430 2426 -0.5196386608478042
2438 2426 0.3689992980742820
2443 2426 -0.0088808862575152
2434 2427 -0.2519913327433089
2439 2427 -0.8547929319132054
2448 2427 0.3357341227454451
2450 2428 -0.5394146549882504
2455 2428 0.4686117130039369
2435 2429 -0.1178930021057771
2436 2429 0.5740226447340311
2444 2429 -0.0347605822931608
2443 2430 -0.4029969176305429
2463 2430 -0.3326822717978454
2490 2430 0.4138615070039979
2435 2431 0.7385784478286082
2437 2431 0.7619556260872220
2441 2431 0.6279183324686421
2461 2432 -0.5641956846827600
2462 2432 0.1529282509842220
2484 2432 0.5037079989013336
2587 2433 -0.8291573839533677
3353 2433 -0.6661275063325907
3362 2433 -0.6183965575121311
2438 2434 -0.4624469740897854
2448 2434 -0.5554673909726249
2456 2434 -0.2186040833765679
2441 2435 0.0497756889553513
2444 2435 0.0517288735618153
2447 2435 0.6940214239936522
2439 2436 0.6143681142612996
2444 2436 0.9356669820245980
2454 2436 -0.1470686971648305
2441 2437 0.0740073854792931
2453 2437 -0.3569750053407391
2443 2438 -0.2146977141636403
2456 2438 -0.8273873104037599
2458 2438 -0.5189062166203803
2448 2439 0.4050111392559588
2454 2439 -0.6967070528275399
2465 2439 0.9453718680379650
2442 2440 -0.0317697683645131
2446 2440 -0.8275704214606159
2468 2440 -0.6189458906826990
2474 2440 0.3725394451734978
2447 2441 0.3032013916440321
2453 2441 -0.4744712668233283
2459 2441 0.6268196661275063
2450 2442 0.5837275307473984
2468 2442 -0.7651905880916776
2471 2442 -0.1951658680990020
2458 2443 -0.7419965208899197
2488 2443 0.2083498641926329
2490 2443 0.0281685842463455
2447 2444 -0.2449720755638295
2454 2444 0.4205755790887173
2464 2444 -0.3302407910397657
2469 2444 0.8321481978820156
2481 2445 -0.3272499771111179
2533 2445 -0.0051576281014435
2567 2445 0.0147404400769067
2462 2446 -0.5588244270149846
2474 2446 0.3707693716238898
2487 2446 -0.0458082827234718
2459 2447 -0.9098483230079043
2464 2447 0.0146183660390027
2456 2448 -0.7294228949858088
2465 2448 -0.6646626178777428
2475 2448 0.8805505539109471
2467 2449 0.3149815363017670
2473 2449 0.9374980925931578
2641 2449 -0.1147190771202734
2859 2449 0.8175603503524889
2455 2450 -0.9716177861873226
2471 2450 -0.6318857387005219
2479 2450 0.4464552751243629
3954 2451 0.8752403332621235
4166 2451 -0.2699362163151952
4329 2451 0.3461714529862361
2499 2452 -0.8579058198797571
2600 2452 -0.7376628925443282
2903 2452 -0.9438459425641652
2459 2453 -0.8250068666646321
2472 2453 -0.5740836817529832
2465 2454 0.5254982146671956
2469 2454 -0.3546555986205634
2477 2454 0.1034882656331064
2479 2455 -0.9435407574694052
2483 2455 0.8743247779778436
2458 2456 -0.5873287148655659
2475 2456 0.7545091097750787
2476 2456 0.0604571672719505
2678 2457 0.5421002838221380
2994 2457 -0.2821436201055940
3140 2457 -0.1294900357066561
2476 2458 0.7466963713492234
2488 2458 -0.0058900723288675
2464 2459 -0.0097354045228430
2472 2459 -0.3122348704489273
2478 2459 -0.1669057283242287
2503 2460 -0.2040772728659932
2512 2460 -0.6262092959379864
2569 2460 -0.7481002227851192
2484 2461 -0.2499160740989410
2503 2461 0.9547105319376201
2508 2461 0.9537949766533402
2484 2462 -0.0121768852809229
2487 2462 -0.8187200537125767
2502 2462 -0.4550004577776421
2480 2463 -0.8718222602008118
2490 2463 -0.1648304696798608
2507 2463 -0.0938444166386914
2469 2464 0.4331492049928281
2478 2464 -0.3138218329416791
2482 2464 -0.7363200781273842
2475 2465 0.0046693319498277
2477 2465 -0.0891445661793878
2495 2465 -0.8442945646534623
3077 2466 -0.5206762901699882
3992 2466 0.4891201513718071
4446 2466 0.0520950956755273
2516 2467 0.9837641529587695
2641 2467 0.1344340342417676
2686 2467 -0.5771965697195349
2471 2468 0.6050294503616442
2474 2468 -0.8894619586779382
2486 2468 0.8543046357615893
2496 2468 0.5908078249458297
2477 2469 -0.7687917722098453
2482 2469 0.5013885921811578
2491 2469 -0.1070284127323221
3989 2470 0.7830133976256599
4032 2470 -0.0942716757713553
2479 2471 -0.8028504287850582
2486 2471 0.2298348948637348
2492 2471 0.7535935544907986
2478 2472 0.2889797662282174
2489 2472 -0.5520493179113133
2678 2473 0.4206366161076693
2859 2473 -0.0816980498672445
3015 2473 -0.1155735953856014
2487 2474 0.4902188177129430
2496 2474 0.5145725882747887
2506 2474 -0.1470686971648305
2476 2475 -0.2060914944914091
2494 2475 0.5316629535813471
2495 2475 0.3507492294076358
2488 2476 0.6550187688833278
2494 2476 -0.1175878170110172
2491 2477 0.5051118503372296
2495 2477 0.5452131717886899
2505 2477 -0.7694631794183172
2482 2478 0.1665395062105166
2489 2478 -0.8449659718619342
2493 2478 -0.5170751060518204
2483 2479 -0.4293649098178045
2492 2479 0.2371593371379741
2497 2479 0.0182195501571703
2481 2480 0.6254158146916104
2507 2480 0.0769371623889890
2554 2480 -0.4694051942503128
2555 2480 -0.1390728476821192
2555 2481 -0.5527207251197852
2567 2481 0.0019837031159398
2491 2482 0.2591937009796441
2493 2482 -0.8628498184148686
2498 2482 0.3149815363017670
2497 2483 0.0642414624469740
2500 2483 -0.1850337229529709
2502 2484 0.0270699179052094
2508 2484 0.6182134464552751
2528 2484 -0.6976836451307717
3747 2485 0.4584185308389539
3826 2485 0.6213263344218269
4158 2485 0.4688558610797449
2492 2486 -0.7708670308542130
2496 2486 -0.8952604754783776
2501 2486 0.8117618335520493
2502 2487 -0.7217322305978576
2506 2487 -0.6501358073671681
2526 2487 -0.9792474135563219
2490 2488 0.4518265327921385
2494 2488 -0.4737998596148564
2513 2488 -0.8943449201940977
2517 2488 0.2434461500900296
2493 2489 -0.6509292886135440
2504 2489 -0.9669789727469711
2507 2490 0.3052766502883999
2513 2490 0.5347758415478987
2519 2490 -0.3478804895168920
2498 2491 0.0495315408795434
2505 2491 -0.8920865504928739
2511 2491 -0.3162633136997589
2497 2492 0.1944944608905301
2501 2492 0.4743491927854244
2509 2492 -0.3807184057130649
2498 2493 0.9681997131260109
2504 2493 -0.6417126987517929
2510 2493 -0.4863124485000152
2495 2494 0.1630603961302530
2517 2494 0.5898922696615498
2520 2494 0.0196844386120183
2505 2495 -0.9053926206244087
2520 2495 0.2909939878536332
2523 2495 0.8943449201940976
2501 2496 -0.8609576708273567
2506 2496 -0.6551408429212318
2514 2496 -0.4062318796349986
2500 2497 0.1886349070711386
2509 2497 -0.4418164616840113
2515 2497 -0.5487533188879055
2510 2498 0.3751640369884335
2511 2498 0.9689931943723868
2518 2498 0.5666371654408400
2540 2499 0.2098757896664327
2903 2499 -0.7484664448988312
3254 2499 -0.6288338877529221
2515 2500 0.8006530961027862
2522 2500 -0.4199041718802453
2509 2501 -0.2595599230933561
2514 2501 -0.3434858241523484
2525 2501 0.0363475447859127
2526 2502 -0.4451124607074191
2528 2502 0.8991668446913053
2560 2502 0.5446028015991700
2508 2503 -0.5600451673940245
2566 2503 -0.3399456770531327
2569 2503 0.0769981994079409
2646 2503 -0.7930845057527390
2510 2504 0.8376415295876949
2521 2504 -0.6051515243995483
2511 2505 0.8435010834070864
2523 2505 -0.2667622913296914
2524 2505 0.5670033875545519
2514 2506 0.9267555772576068
2526 2506 0.1542710654011659
2539 2506 -0.1178319650868251
2519 2507 0.4737998596148565
2534 2507 0.3522751548814356
2554 2507 -0.1814935758537553
2528 2508 0.9306619464705344
2566 2508 -0.3846858119449446
2515 2509 0.8368480483413190
2525 2509 0.3288979766228217
2530 2509 0.4325388348033081
2518 2510 -0.7672048097170934
2521 2510 -0.0536820581682791
2529 2510 0.1179540391247291
2518 2511 0.7007354960783716
2524 2511 0.5570543534653767
2527 2511 0.4820398571733757
2569 2512 0.3024689474166082
2600 2512 0.8236030152287361
2881 2512 0.0072328867458114
2517 2513 -0.8677938169499801
2519 2513 -0.0216376232184821
2541 2513 -0.9703360087893307
2525 2514 -0.6521500289925840
2539 2514 0.2529679250465406
2543 2514 0.1294289986877042
2522 2515 -0.7876522110660116
2530 2515 -0.6353648487807855
2532 2515 -0.9102145451216163
2533 2516 -0.7886288033692435
2686 2516 0.4272896511734368
2876 2516 0.6224860377819148
2956 2516 -0.2464369640186773
2520 2517 0.4747154148991364
2541 2517 -0.8256782738731040
2549 2517 -0.1318704794457839
2565 2517 0.2628559221167639
2527 2518 0.0873134556108279
2529 2518 -0.7214880825220495
2531 2518 -0.3602710043641468
2534 2519 -0.0351268044068728
2541 2519 0.1216772972808009
2544 2519 -0.8203680532242805
2523 2520 -0.3537400433362835
2545 2520 -0.3517868587298196
2549 2520 -0.5329447309793389
2529 2521 -0.5546128727072970
2535 2521 -0.5217749565111240
2532 2522 -0.3408001953184606
2538 2522 0.7300943021942807
2524 2523 0.3196813867610706
2542 2523 -0.7862483596301156
2545 2523 0.3347575304422132
2548 2523 0.1858882412182989
2550 2523 0.1180150761436811
2527 2524 -0.5187841425824763
2537 2524 0.0641804254280220
2542 2524 0.8434400463881344
2530 2525 0.2837916196172978
2543 2525 -0.4584795678579058
2546 2525 -0.7076326792199469
2539 2526 -0.3146153141880551
2560 2526 -0.0834681234168523
2591 2526 0.9524521622363964
2531 2527 -0.2231818597979675
2536 2527 -0.8527787102877895
2537 2527 -0.4141666920987579
2560 2528 -0.6228522598956268
2566 2528 -0.5887936033204137
2624 2528 -0.1032441175572985
2531 2529 -0.7573778496658223
2535 2529 0.1008636738181707
2547 2529 -0.0723593859675894
2532 2530 0.9767448957792901
2546 2530 0.0408032471694082
2552 2530 -0.1847895748771630
2536 2531 -0.2093874935148168
2547 2531 0.3736381115146337
2551 2531 0.8810998870815150
2538 2532 0.2364879299295022
2552 2532 -0.4054383983886227
2556 2532 0.0744956816309092
2567 2533 -0.5090792565691091
2876 2533 0.1172826319162572
2890 2533 0.2781762138737145
2544 2534 0.6746116519669179
2554 2534 0.8511307107760857
2570 2534 -0.7845393230994598
2547 2535 -0.5328226569414349
2557 2535 -0.4015930661946471
2537 2536 0.7829523606067079
2551 2536 0.7827692495498519
2553 2536 0.2589495529038361
2542 2537 -0.0036927396465957
2553 2537 -0.4918057802056948
2564 2537 0.1352885525070955
2556 2538 -0.2393566698202459
2561 2538 0.3794976653340252
2543 2539 0.9941404461806085
2591 2539 -0.1313211462752160
2593 2539 -0.3057649464400158
3254 2540 0.0560625019074068
3337 2540 0.8957487716299937
3546 2540 -0.7197790459913938
2544 2541 0.3799249244666891
2565 2541 0.4297311319315165
2592 2541 0.9090548417615283
2604 2541 0.5604724265266885
2548 2542 0.4110538041322063
2563 2542 -0.7752006591998046
2564 2542 0.3461714529862361
2546 2543 -0.6832178716391492
2582 2543 -0.6664937284463026
2593 2543 -0.3004547257911924
2570 2544 0.7461470381786555
2592 2544 -0.0082094790490432
2599 2544 -0.3592944120609149
2549 2545 -0.0901821955015717
2550 2545 0.3329264198736535
2558 2545 -0.2613910336619160
2559 2545 -0.6019775994140446
2552 2546 0.0863368633075960
2577 2546 0.1341898861659596
2582 2546 -0.6846217230750451
2551 2547 -0.1916867580187384
2557 2547 -0.8123722037415693
2571 2547 0.5719473860896633
2573 2547 0.5623035370952483
2550 2548 -0.9683217871639149
2562 2548 0.6915189062166205
2563 2548 0.3390301217688527
2558 2549 -0.9771721549119541
2565 2549 0.5715201269569994
2576 2549 0.6866969817194128
2580 2549 0.3729667043061617
2559 2550 -0.7277748954741050
2562 2550 -0.4610431226538896
2553 2551 0.3286538285470137
2568 2551 0.7399822992645040
2571 2551 -0.4846644489883114
2556 2552 -0.8903164769432661
2577 2552 -0.2797021393475143
2579 2552 -0.7585375530259102
2564 2553 -0.9836420789208655
2568 2553 0.4839930417798395
2572 2553 -0.7184972685934019
2555 2554 -0.4436475722525712
2570 2554 0.9237647633289590
2625 2554 0.6631366924039430
2705 2554 -0.3306070131534776
2741 2554 -0.2699972533341471
2567 2555 0.0511795403912474
2741 2555 -0.6447645496993927
2756 2555 0.3115634632404554
2561 2556 0.8243354594561603
2579 2556 0.1789300210577716
2581 2556 -0.6781517990661337
2573 2557 -0.3846247749259926
2583 2557 0.5397808771019623
2559 2558 0.4369945371868038
2575 2558 -0.5208594012268442
2576 2558 0.9157078768272957
2562 2559 -0.3769341105380413
2574 2559 -0.6677755058442946
2575 2559 -0.9351176488540299
2591 2560 -0.7772148808252205
2624 2560 -0.1278420361949523
2692 2560 -0.0164494766075625
2581 2561 0.1846064638203071
2585 2561 0.8343455305642873
2563 2562 -0.4484084597308268
2574 2562 -0.8743858149967956
2578 2562 -0.9508651997436445
2564 2563 0.8723715933713798
2578 2563 -0.9695425275429548
2584 2563 -0.5547959837641530
2572 2564 -0.7836848048341318
2584 2564 0.8091982787560656
2588 2564 0.4554277169103060
2580 2565 -0.1880245368816187
2604 2565 -0.8513748588518937
2612 2565 -0.9563585314493240
2633 2565 0.2714011047700431
2624 2566 0.9660634174626912
2646 2566 -0.6001464888454848
2811 2566 0.5909298989837337
2756 2567 0.4026917325357831
2890 2567 -0.7745292519913327
2946 2567 -0.2565691091647084
2571 2568 0.9479354228339487
2572 2568 0.9064302499465926
2586 2568 -0.2245246742149113
2590 2568 -0.4452955717642750
2646 2569 0.1970580156865138
2881 2569 -0.0888393810846279
2926 2569 0.1021454512161626
2599 2570 -0.2410657063509019
2625 2570 0.4109317300943023
2573 2571 -0.3464766380809962
2586 2571 -0.8665730765709403
2589 2571 -0.3409222693563646
2588 2572 0.4197820978423414
2590 2572 0.4246650593585009
2595 2572 0.6496475112155522
2583 2573 0.9545274208807641
2589 2573 -0.9943845942564166
2594 2573 -0.7609790337839900
2575 2574 0.5256202887050996
2578 2574 0.2635883663441878
2596 2574 0.5837885677663504
2598 2574 -0.9606311227759636
2576 2575 0.3679616687520981
2596 2575 0.4629352702414014
2597 2575 0.4354075746940520
2580 2576 -0.7515182958464308
2597 2576 -0.8911709952085940
2602 2576 0.1554307687612537
2579 2577 -0.4460890530106509
2582 2577 -0.5189672536393323
2614 2577 -0.8803674428540910
2622 2577 -0.4205755790887173
2584 2578 0.1662953581347086
2598 2578 -0.7711111789300211
2601 2578 0.4064760277108066
2581 2579 0.2724387340922270
2611 2579 -0.0067445905941954
2614 2579 -0.6692403942991425
2602 2580 -0.5498519852290414
2612 2580 0.8005310220648822
2620 2580 0.3101596118045595
2585 2581 0.0398876918851283
2610 2581 0.2536393322550126
2611 2581 -0.1327860347300638
2593 2582 -0.1292458876308481
2622 2582 -0.4980315561387981
2635 2582 0.1581163975951414
2594 2583 -0.8867763298440504
2606 2583 -0.2425916318247017
2588 2584 -0.5445417645802180
2601 2584 -0.0075991088595233
2609 2584 0.9210180974761193
2608 2585 -0.7809991760002442
2610 2585 -0.0329294717246009
2589 2586 -0.8844569231238746
2590 2586 -0.4657429731131931
2603 2586 -0.4399853511154516
2607 2586 0.0154118472853786
2994 2587 0.9174779503769035
3362 2587 0.8079775383770256
3419 2587 0.1423688467055269
2595 2588 -0.2662129581591235
2609 2588 -0.6616107669301432
2616 2588 0.8986175115207373
2594 2589 -0.4361400189214759
2603 2589 -0.8730430005798517
2605 2589 -0.0290231025116733
2595 2590 -0.7910092471083712
2607 2590 0.0741904965361491
2615 2590 -0.9282204657124546
2593 2591 0.3065584276863917
2692 2591 -0.1008026367992187
2736 2591 0.2920316171758170
2808 2591 -0.5835444196905424
2599 2592 0.6883449812311166
2604 2592 -0.7237464522232735
2638 2592 0.2853175450910979
2664 2592 -0.0107119968260750
2677 2592 0.5344706564531387
2635 2593 -0.6243781853694266
2736 2593 0.0773644215216529
2605 2594 -0.6693624683370465
2606 2594 -0.6069826349681082
2613 2594 -0.9534897915585803
2615 2595 -0.3586840418713950
2616 2595 0.9596545304727317
2626 2595 -0.6086916714987640
2597 2596 0.8533280434583574
2598 2596 -0.5547349467452010
2618 2596 -0.0114444410534990
2619 2596 0.6424451429792168
2602 2597 -0.8940397350993378
2618 2597 -0.3893246253852962
2623 2597 -0.1022675252540666
2601 2598 0.1713003936887723
2619 2598 -0.6676534318063906
2621 2598 0.7466963713492234
2625 2599 0.2826929532761620
2664 2599 -0.0773033845027009
2682 2599 0.5037079989013336
2881 2600 0.5224463637195960
2903 2600 -0.6132694479201636
3058 2600 0.4139225440229499
2609 2601 0.3269447920163580
2621 2601 -0.9592883083590198
2627 2601 0.2309945982238228
2620 2602 -0.4057435834833827
2623 2602 0.9160740989410077
2634 2602 -0.9259010589922788
2605 2603 0.1546372875148778
2607 2603 -0.5256202887050996
2617 2603 -0.8458204901272621
2629 2603 0.2276375621814630
2633 2604 0.5780510879848628
2638 2604 0.0873134556108279
2651 2604 -0.9393292031617175
2663 2604 -0.9107028412732322
2613 2605 0.8007141331217382
2617 2605 -0.6559343241676077
2628 2605 0.4733726004821925
2613 2606 0.4315622425000762
2630 2606 0.6470229194006165
2615 2607 0.3467207861568040
2629 2607 -0.6394543290505692
2632 2607 -0.4742271187475203
2610 2608 -0.2278817102572710
2630 2608 0.7203894161809137
2631 2608 0.0744956816309092
2616 2609 0.6331675160985137
2627 2609 0.4407177953428754
2636 2609 -0.4723960081789605
2611 2610 0.8580278939176611
2631 2610 -0.2669454023865474
2640 2610 -0.4095278786584063
2614 2611 0.3274330881679739
2640 2611 0.9182103946043276
2656 2611 0.5527817621387372
2620 2612 0.9937131870479445
2633 2612 -0.0592364268929105
2650 2612 0.3788262581255530
2670 2612 -0.0397045808282723
2628 2613 -0.6714377269814142
2630 2613 -0.5137180700094608
2639 2613 -0.5759758293404951
2622 2614 -0.2170171208838161
2656 2614 0.9735099337748345
2658 2614 -0.7524338511307107
2626 2615 -0.0537430951872311
2632 2615 -0.8856776635029145
2647 2615 -0.6635029145176550
2626 2616 -0.0647297585985901
2636 2616 0.0100405896176030
2649 2616 0.1716055787835322
2628 2617 -0.4678182317575610
2629 2617 -0.0942106387524033
2637 2617 0.4452345347453230
2619 2618 -0.2330088198492386
2623 2618 0.2187871944334239
2643 2618 0.9002044740134891
2644 2618 -0.1185644093142491
2621 2619 -0.5458235419782098
2642 2619 -0.5918454542680136
2643 2619 -0.1355327005829036
2634 2620 -0.4637897885067294
2650 2620 0.4134342478713340
2659 2620 0.0605182042909025
2627 2621 -0.5852534562211982
2642 2621 0.0699789422284616
2645 2621 0.1372417371135595
2635 2622 0.2774437696462906
2658 2622 0.5095065157017731
2662 2622 -0.1805780205694754
2634 2623 0.9796136356700338
2644 2623 -0.0959196752830592
2653 2623 -0.1091036713766900
2692 2624 0.7228308969389936
2811 2624 -0.3693044831690421
2898 2624 0.3553270058290352
2682 2625 -0.1412091433454390
2705 2625 -0.7512741477706228
2732 2625 -0.4199041718802453
2647 2626 -0.5242774742881557
2649 2626 0.9389019440290536
2660 2626 0.6417126987517929
2636 2627 -0.3691213721121860
2645 2627 0.2482070375682852
2655 2627 -0.9923093356120487
2637 2628 -0.2039551988280892
2639 2628 0.5263527329325235
2652 2628 -0.8378856776635029
2632 2629 -0.5621814630573443
2637 2629 -0.9280373546555987
2648 2629 0.7534104434339426
2631 2630 -0.9453718680379650
2639 2630 -0.1756950590533158
2654 2630 0.3649098178044985
2640 2631 -0.4163029877620777
2654 2631 0.2367931150242621
2666 2631 -0.1438337351603748
2647 2632 -0.2583391827143162
2648 2632 0.4157536545915097
2665 2632 0.7173375652333140
2651 2633 -0.1053193762016663
2670 2633 -0.0449537644581439
2673 2633 0.4800256355479597
2675 2633 -0.6631366924039430
2653 2634 0.8215277565843684
2659 2634 -0.8495437482833339
2668 2634 -0.0296945097201453
2662 2635 0.6245002594073306
2736 2635 0.7182531205175939
2845 2635 -0.9240089114047669
2649 2636 0.6630146183660390
2655 2636 -0.8104190191351055
2661 2636 0.9412823877681813
2667 2636 -0.8911099581896420
2648 2637 -0.9129001739555040
2652 2637 0.4614703817865535
2671 2637 -0.8471022675252541
2663 2638 -0.5885494552446058
2677 2638 0.3080843531601916
2684 2638 -0.4111758781701101
2652 2639 -0.1271095919675284
2654 2639 -0.4725791192358165
2674 2639 -0.6134525589770196
2656 2640 -0.6877346110415967
2666 2640 0.1108127079073458
2694 2640 -0.2667012543107394
2686 2641 0.5763420514542070
2859 2641 0.6216925565355389
3011 2641 0.6442762535477766
3059 2641 -0.5447248756370739
2643 2642 -0.6776635029145177
2645 2642 -0.9887691885128330
2669 2642 0.5031586657307656
2672 2642 0.0655232398449659
2644 2643 -0.8776818140202033
2669 2643 0.1449324015015108
4706 2643 -0.7761162144840846
2653 2644 0.3697317423017059
2679 2644 0.3141880550553910
4706 2644 -0.2556535538804284
2655 2645 0.4357737968077640
2672 2645 0.0984221930600910
2680 2645 0.8516800439466536
2811 2646 -0.4882045960875271
2926 2646 -0.6586809900204473
2962 2646 -0.2849513229773858
2660 2647 0.1307107760856960
2665 2647 -0.0989715262306589
2695 2647 -0.3456221198156681
2696 2647 -0.1473738822595905
2665 2648 -0.0708334604937895
2671 2648 -0.4516434217352825
2690 2648 0.5572985015411847
2660 2649 0.6917630542924285
2661 2649 -0.4777672658467360
2676 2649 0.1757560960722677
2659 2650 -0.7600024414807580
2670 2650 0.5930661946470535
2687 2650 -0.9636219367046114
2700 2650 0.7802056947538683
2663 2651 -0.4157536545915097
2675 2651 0.2953276161992249
2699 2651 0.1036103396710104
2671 2652 -0.0806604205450606
2674 2652 0.5540635395367290
2689 2652 -0.0068056276131474
2668 2653 -0.1204565569017609
2679 2653 -0.0912198248237556
2685 2653 0.8565019684438613
2666 2654 -0.3943906979583117
2674 2654 -0.5130466628009889
2688 2654 -0.2592547379985961
2667 2655 -0.5662099063081759
2680 2655 -0.4510330515457625
4707 2655 0.9475081637012848
2658 2656 0.5384990997039705
2694 2656 0.3505661183507798
2722 2656 0.3257850886562701
2742 2656 -0.3355510116885891
2963 2657 0.3584398937955871
4010 2657 -0.3623462630085147
4097 2657 0.2429578539384136
2662 2658 0.5190282906582842
2714 2658 0.1524399548326061
2722 2658 0.6556901760917997
2668 2659 -0.4288155766472366
2687 2659 0.6414075136570330
2693 2659 -0.2978301339762566
2676 2660 -0.4594561601611378
2695 2660 0.4582964568010499
2701 2660 0.9213843195898312
2704 2660 -0.6603289895321512
2667 2661 -0.7062898648030030
2676 2661 0.9088106936857203
2681 2661 -0.6813257240516373
2683 2661 0.2645039216284677
2714 2662 0.0791344950712607
2845 2662 0.1427350688192388
2684 2663 0.0374462111270486
2699 2663 -0.7283852656636249
2716 2663 0.2899563585314493
2677 2664 -0.3541673024689475
2682 2664 -0.3741874446852016
2743 2664 0.7020783104953154
2767 2664 -0.0528275399029512
2690 2665 -0.7769707327494125
2696 2665 0.0640583513901181
2717 2665 -0.5717032380138554
2688 2666 0.9929197058015686
2694 2666 0.3693044831690420
2712 2666 -0.0962858973967712
2683 2667 -0.3124179815057833
2702 2667 0.0406811731315042
4707 2667 0.2685934018982512
2685 2668 -0.4805139316995758
2693 2668 -0.4246650593585010
2706 2668 0.1450544755394148
2672 2669 0.7346720786156804
4706 2669 -0.4625690481276894
2673 2670 0.0112002929776909
2700 2670 -0.8464308603167822
2707 2670 -0.5943479720450453
2709 2670 0.5012665181432538
2689 2671 -0.0097964415417952
2690 2671 -0.7970519119846187
2715 2671 -0.4949797051911985
2680 2672 0.8391064180425427
2675 2673 0.9318826868495742
2703 2673 0.9227271340067751
2707 2673 -0.5184789574877162
2688 2674 -0.8059022797326578
2689 2674 -0.0611285744804224
2710 2674 0.9076509903256325
2699 2675 0.8403881954405348
2703 2675 0.1805169835505234
2719 2675 0.7792291024506364
2681 2676 0.0232245857112339
2691 2676 -0.5214697714163641
2698 2676 -0.3721732230597857
2701 2676 0.4025696584978791
2684 2677 -0.8953215124973296
2743 2677 0.8363597521897030
2747 2677 0.3763237403485213
3015 2678 -0.1949217200231941
3140 2678 -0.3860896633808405
3290 2678 0.1779534287545397
2685 2679 0.6849879451887571
4706 2679 -0.9460432752464369
4707 2680 -0.1849726859340189
2683 2681 0.3134556108279671
2691 2681 0.3163243507187108
2697 2681 -0.7152012695699942
2732 2682 0.0326853236487930
2767 2682 0.0743736075930053
2835 2682 0.3585619678334910
2697 2683 -0.5159154026917325
2702 2683 -0.4453566087832270
4708 2683 -0.1438337351603748
2716 2684 -0.1510971404156621
2747 2684 0.8691976683858760
2759 2684 0.7414471877193518
2706 2685 -0.4606769005401776
2956 2686 -0.7398602252266000
3011 2686 0.6787621692556536
3034 2686 0.9053926206244087
2693 2687 -0.8981292153691214
2700 2687 -0.0867641224402600
2721 2687 0.1855830561235390
2725 2687 -0.4781945249794000
2710 2688 -0.7641529587694937
2712 2688 -0.6224860377819148
2724 2688 0.7449262977996154
2710 2689 -0.6650288399914548
2715 2689 0.2801293984801783
2735 2689 -0.0774864955595569
2715 2690 0.6898709067049165
2717 2690 0.9204687643055514
2744 2690 0.7822199163792840
2697 2691 0.0823694570757165
2698 2691 0.8876308481093784
2708 2691 -0.7324137089144567
2808 2692 0.0014343699453718
2898 2692 0.3965880306405836
2929 2692 -0.2321543015839106
2706 2693 -0.0560625019074068
2721 2693 -0.3339640491958372
2727 2693 -0.6116214484084597
2712 2694 -0.3636280404065065
2742 2694 -0.5961790826136051
4709 2694 -0.7034821619312113
2696 2695 0.8447828608050783
2704 2695 -0.9132663960692160
2729 2695 -0.9954832605975524
2740 2695 0.4084292123172704
2717 2696 0.4587847529526659
2740 2696 -0.6783959471419416
2748 2696 -0.7086092715231789
2708 2697 -0.0945768608661153
2713 2697 0.8987395855586413
4708 2697 -0.8030335398419142
2701 2698 0.1153904843287454
2708 2698 -0.0220648823511460
2711 2698 -0.6356700338755454
2716 2699 0.8015076143681144
2719 2699 -0.8549150059511094
2745 2699 0.8164006469924008
2709 2700 0.6952421643726920
2725 2700 0.3834650715659047
2730 2700 0.3356730857264931
2738 2700 -0.5452131717886899
2704 2701 0.0911587878048037
2711 2701 0.4381542405468917
2718 2701 0.9173558763389995
4707 2702 -0.9450666829432051
4708 2702 0.5090792565691091
2707 2703 -0.2327036347544786
2719 2703 0.4659871211890012
2728 2703 -0.0551469466231269
2737 2703 0.7982116153447065
2718 2704 -0.6755272072511979
2723 2704 0.6183355204931791
2729 2704 0.7232581560716576
2732 2705 -0.3643604846339304
2741 2705 0.6573992126224555
2804 2705 0.9938962981048005
2852 2705 0.7435224463637196
2727 2706 -0.6743675038911099
2709 2707 0.7607959227271339
2728 2707 -0.1134372997222816
2733 2707 0.2886745811334575
2711 2708 0.5240943632312998
2713 2708 0.1518906216620379
2720 2708 -0.7112949003570666
2730 2709 -0.2498550370799890
2733 2709 -0.0478225043488876
2734 2709 -0.0189519943845943
2724 2710 0.8090151676992097
2735 2710 0.1233252967925047
2746 2710 0.1597643971068452
2718 2711 0.9899288918729210
2720 2711 0.0475783562730796
2726 2711 0.1318094424268319
2724 2712 -0.5969725638599811
2758 2712 0.1297341837824642
4709 2712 -0.0087588122196112
2720 2713 0.2928861354411449
4708 2713 0.6973174230170598
2722 2714 -0.3472090823084201
2798 2714 0.9899899288918730
2845 2714 -0.7625659962767418
2735 2715 0.1080050050355541
2744 2715 0.4883266701254312
2766 2715 -0.1217993713187048
2745 2716 0.5956907864619891
2759 2716 -0.6567278054139836
2771 2716 0.7162388988921782
2744 2717 -0.1964476454969939
2748 2717 -0.2380138554033021
2777 2717 0.7087923825800349
2723 2718 0.9516586809900205
2726 2718 -0.6758323923459578
2731 2718 0.8516800439466536
2737 2719 -0.5108493301187170
2745 2719 -0.5489364299447614
2762 2719 0.3392742698446607
2726 2720 -0.8395947141941588
2725 2721 -0.1828363902706992
2727 2721 0.7547532578508866
2749 2721 -0.5869624927518540
2750 2721 -0.5582750938444166
2742 2722 -0.9060640278328806
2794 2722 0.6756492812891017
2798 2722 0.0567339091158787
2729 2723 -0.6882839442121647
2731 2723 -0.9774163029877621
2739 2723 -0.5506454664754173
2746 2724 0.5289773247474594
2758 2724 0.0965300454725790
2775 2724 0.3172399060029909
2738 2725 -0.1434064760277108
2749 2725 0.7194738608966338
2757 2725 0.4330271309549241
2731 2726 -0.8496658223212379
2750 2727 0.1302835169530321
2733 2728 0.6762596514786219
2737 2728 0.9357890560625020
2753 2728 0.4016541032135990
2760 2728 0.4611041596728416
2739 2729 0.3403729361857968
2740 2729 -0.7564012573625905
2754 2729 -0.2310556352427747
2734 2730 0.9122898037659841
2738 2730 -0.9500106814783166
2752 2730 -0.2430799279763176
2755 2730 -0.1939451277199622
2739 2731 -0.4419995727408673
2804 2732 0.3767509994811853
2835 2732 -0.6208380382702109
2870 2732 -0.0519119846186712
2734 2733 0.6563005462813196
2751 2733 0.8563188573870053
2753 2733 -0.4252754295480209
2751 2734 -0.4118472853785821
2755 2734 -0.3303628650776697
2746 2735 0.1760002441480759
2766 2735 0.0556352427747429
2782 2735 0.2667012543107394
2808 2736 0.9462263863032929
2845 2736 -0.6175420392468032
2904 2736 0.4098330637531662
2760 2737 0.0372631000701926
2762 2737 0.8731650746177557
2776 2737 0.6706442457350383
2752 2738 0.9832148197882016
2757 2738 0.0702841273232215
2761 2738 0.3154698324533829
2754 2739 -0.6824854274117251
2748 2740 -0.6719260231330302
2754 2740 0.5573595385601366
2780 2740 -0.8478347117526780
2756 2741 -0.6765037995544297
2852 2741 -0.4693441572313608
2909 2741 -0.0207831049531541
2930 2741 0.7233191930906095
2794 2742 -0.6776635029145177
2797 2742 0.7297280800805688
4709 2742 0.7995544297616504
2747 2743 0.9985961485641042
2767 2743 0.3237098300119021
2816 2743 0.1393780327768792
2824 2743 -0.3536790063173315
2766 2744 0.2818994720297860
2777 2744 -0.1499374370555742
2805 2744 0.8881191442609944
2762 2745 -0.9548936429944761
2771 2745 0.2635273293252358
2783 2745 0.0310373241370892
2775 2746 -0.0129703665272988
2782 2746 0.7646412549211097
2759 2747 0.2322153386028627
2815 2747 0.2163457136753442
2816 2747 0.7390057069612721
2777 2748 -0.1615344706564531
2780 2748 -0.7402874843592639
2809 2748 -0.3280434583574938
2750 2749 0.9021576586199529
2757 2749 -0.6747337260048218
2769 2749 0.1711172826319163
2770 2749 0.9197973570970794
2769 2750 0.9196142460402235
2753 2751 0.8695028534806359
2755 2751 0.1123386333811456
2764 2751 -0.7152012695699942
2765 2751 -0.4720908230842006
2755 2752 -0.8746910000915555
2761 2752 -0.4722128971221046
2763 2752 -0.7880184331797235
2768 2752 -0.9425031281472213
2760 2753 -0.8932462538529619
2764 2753 0.3610644856105227
2774 2753 0.9148533585619678
2780 2754 -0.2637104403820918
2763 2755 0.5256202887050996
2765 2755 -0.7098300119022187
2909 2756 -0.0816980498672445
2943 2756 -0.6899319437238685
2946 2756 0.1802728354747154
2761 2757 0.8112735374004334
2770 2757 -0.9403668324839015
2773 2757 -0.7080599383526109
2775 2758 0.4583574938200019
2790 2758 -0.0184026612140263
2807 2758 -0.4923551133762627
4709 2758 0.1529892880031740
2771 2759 -0.9858394116031373
2812 2759 -0.3641773735770745
2815 2759 0.3647267067476425
2774 2760 0.7665944395275734
2776 2760 -0.3146763512070071
2786 2760 -0.1126438184759057
2768 2761 -0.5868404187139500
2772 2761 0.4197210608233894
2773 2761 -0.2903836176641132
2776 2762 0.7267983031708731
2783 2762 0.5684682760093998
2793 2762 0.7026886806848354
2765 2763 -0.6946928312021241
2768 2763 -0.4687337870418409
2779 2763 0.6023438215277566
2781 2763 -0.4095278786584063
2765 2764 0.6774803918576617
2774 2764 0.2963652455214087
2778 2764 0.6976226081118198
2787 2764 -0.9721060823389386
2778 2765 0.5121311075167090
2779 2765 0.4023865474410231
2782 2766 -0.6025269325846125
2805 2766 0.3313394573809014
2827 2766 -0.9786370433668020
2824 2767 -0.2707296975615711
2835 2767 0.5124973296304209
2848 2767 0.7189855647450178
2772 2768 -0.3977477340006714
2781 2768 -0.0688192388683737
2784 2768 0.5459456160161138
2770 2769 -0.7169713431196021
2789 2769 0.1704458754234444
2773 2770 0.6837672048097172
2788 2770 -0.7975402081362346
2789 2770 -0.2844630268257698
2783 2771 0.2330088198492386
2812 2771 0.7165440839869381
2817 2771 -0.4596392712179938
2773 2772 0.1004364146855068
2784 2772 0.7618335520493180
2785 2772 0.4432203131199073
2785 2773 -0.6688131351664784
2788 2773 -0.9152806176946318
2786 2774 0.9299295022431104
2787 2774 0.0018616290780358
2796 2774 0.1890621662038026
2782 2775 0.7412030396435438
2807 2775 0.7739188818018128
2825 2775 -0.4820398571733756
2786 2776 0.0318308053834651
2793 2776 -0.5652943510238959
2802 2776 -0.1553086947233497
2805 2777 -0.5978270821253090
2809 2777 -0.5635242774742881
2832 2777 -0.9948728904080325
2779 2778 0.9088717307046723
2787 2778 -0.5033417767876217
2791 2778 -0.5475936155278176
2781 2779 -0.4209418012024293
2791 2779 0.7632984405041658
2792 2779 0.8803674428540911
2809 2780 -0.5668202764976958
2836 2780 0.3231604968413342
2784 2781 -0.7743461409344767
2792 2781 -0.8520462660603656
2795 2781 0.4512771996215705
2825 2782 -0.5491805780205694
2827 2782 0.3633228553117467
2793 2783 0.9735709707937865
2810 2783 0.8565630054628133
2817 2783 -0.2037720877712332
2785 2784 -0.9773552659688101
2795 2784 0.7719046601763970
2799 2784 -0.4578081606494339
2788 2785 -0.7336954863124485
2799 2785 0.7221594897305215
2801 2785 -0.7299722281563769
2796 2786 -0.5194555497909482
2802 2786 0.4847254860072634
2814 2786 -0.0293282876064334
2791 2787 0.8016296884060183
2796 2787 -0.9101535081026643
2803 2787 0.9395123142185735
2789 2788 -0.9254127628406629
2800 2788 -0.8641926328318125
2801 2788 -0.0032654805139317
2800 2789 -0.0528275399029512
2797 2790 0.4954680013428143
2807 2790 0.6548966948454238
2838 2790 0.7549974059266946
4709 2790 -0.2541276284066286
2792 2791 0.8207953123569445
2803 2791 0.6909085360271003
2806 2791 -0.9159520249031037
2795 2792 -0.9705191198461867
2806 2792 -0.5891598254341258
2813 2792 -0.1643421735282449
2802 2793 0.1897946104312265
2810 2793 0.2364879299295022
2821 2793 -0.2162236396374401
2797 2794 0.0359202856532488
2798 2794 -0.2706686605426191
2842 2794 0.9041108432264169
2867 2794 0.8013855403302104
2799 2795 -0.7144077883236183
2813 2795 0.9833368938261056
2818 2795 0.4022644734031189
2803 2796 -0.2822046571245460
2814 2796 0.7289956358531449
2822 2796 0.7976012451551866
2838 2797 0.3586840418713950
2842 2797 0.1550645466475418
4709 2797 0.9858394116031373
2845 2798 -0.1433454390087588
2867 2798 0.0877407147434919
2801 2799 -0.9343852046266060
2818 2799 -0.4880214850306711
2819 2799 -0.1478011413922544
2801 2800 -0.6642963957640309
2820 2800 -0.2534562211981567
2819 2801 -0.1920529801324503
2820 2801 -0.8918424024170659
2814 2802 -0.3447065645313883
2821 2802 0.9666127506332591
2829 2802 0.2870876186407056
2806 2803 -0.7744682149723807
2822 2803 0.7211218604083376
2823 2803 -0.7306436353648488
2852 2804 -0.3835261085848567
2870 2804 0.3091830195013276
2900 2804 0.8992889187292092
2827 2805 0.5144505142368847
2832 2805 0.3436078981902524
2864 2805 -0.6610003967406232
2813 2806 0.3834650715659047
2823 2806 -0.2807397686696982
2826 2806 -0.3803521835993530
2825 2807 -0.7512741477706228
2838 2807 0.2098757896664327
2860 2807 -0.7350993377483444
2904 2808 0.8342234565263833
2929 2808 -0.7266151921140171
2832 2809 -0.5367900631733147
2836 2809 0.5267799920651874
2817 2810 0.9713126010925626
2821 2810 0.1294900357066562
2834 2810 -0.0127262184514908
2898 2811 0.9940183721427045
2962 2811 -0.4982757042146062
2988 2811 0.5892818994720297
2815 2812 0.9114963225196082
2817 2812 -0.0600909451582384
2839 2812 -0.3776055177465133
2856 2812 -0.9875484481337932
2818 2813 0.3059480574968718
2826 2813 0.7051911984618671
2828 2813 -0.3442182683797723
2822 2814 0.3971984008301035
2829 2814 0.2792138431958984
2833 2814 0.6572771385845515
2816 2815 -0.5774407177953429
2856 2815 0.5129245887630849
2857 2815 0.8283028656880398
2824 2816 0.8877529221472824
2857 2816 -0.6010620441297647
2862 2816 -0.3218176824243903
2834 2817 0.7564012573625905
2839 2817 0.7106845301675466
2819 2818 -0.5283059175389874
2828 2818 -0.2547990356151005
2830 2818 0.9688711203344829
2820 2819 -0.9757683034760583
2830 2819 -0.8962981048005616
2831 2819 0.8538773766289254
2831 2820 0.4608600115970336
2829 2821 -0.4020203253273110
2834 2821 -0.2784203619495224
2844 2821 -0.4817957090975676
2823 2822 0.3086336863307597
2833 2822 0.3485518967253640
2837 2822 -0.8610797448652607
2826 2823 0.6068605609302042
2837 2823 -0.0224311044648580
2840 2823 -0.3340861232337413
2848 2824 0.8272041993469039
2862 2824 0.7808771019623402
2875 2824 -0.7411420026245918
2827 2825 -0.1465193639942626
2860 2825 -0.1537217322305978
2873 2825 -0.0489211706900236
2828 2826 0.1476180303353984
2840 2826 0.7429731131931516
2841 2826 0.2485122226630452
2864 2827 0.3172399060029909
2873 2827 -0.0248725852229377
2830 2828 -0.4512771996215705
2841 2828 -0.2330698568681906
2843 2828 -0.4479812005981628
2833 2829 0.1072115237891782
2844 2829 0.0220648823511460
2846 2829 0.6020996734519486
2831 2830 -0.3080843531601917
2843 2830 -0.4784386730552079
4710 2830 0.9688100833155309
4710 2831 0.1181371501815851
2836 2832 0.2972808008056886
2864 2832 -0.4233222449415570
2894 2832 -0.8066347239600817
2837 2833 0.2624897000030519
2846 2833 -0.5547959837641530
2847 2833 -0.7153843806268502
2839 2834 0.9304788354136784
2844 2834 -0.4803308206427198
2850 2834 -0.8836024048585467
2861 2834 -0.6001464888454848
2848 2835 0.8274483474227119
2870 2835 0.2137821588793603
2893 2835 0.5388653218176824
2908 2835 0.6375621814630574
2894 2836 0.5407574694051942
2840 2837 0.9704580828272347
2847 2837 0.0517288735618153
2849 2837 0.3328043458357495
2842 2838 0.0074159978026673
2860 2838 -0.8485671559801019
2882 2838 -0.9493392742698447
2856 2839 0.8541215247047333
2861 2839 -0.5449690237128819
2872 2839 -0.9249244666890469
2841 2840 0.5782952360606708
2849 2840 0.0829798272652364
2851 2840 -0.7875301370281076
2843 2841 0.8335520493179114
2851 2841 0.1206396679586168
2853 2841 -0.7272865993224891
2867 2842 -0.6157109286782434
2882 2842 -0.4794152653584399
2853 2843 -0.8256172368541520
2854 2843 0.5984374523148290
4710 2843 0.4503006073183387
2846 2844 -0.3176671651356547
2850 2844 -0.8546098208563494
2855 2844 -0.2892849513229774
2867 2845 0.8535721915341654
2904 2845 0.8026673177282022
2918 2845 0.1418805505539109
2977 2845 -0.3934751426740318
2847 2846 0.6397595141453292
2855 2846 0.6363414410840174
2858 2846 0.2244026001770074
2849 2847 -0.8719443342387158
2858 2847 -0.7910092471083712
2863 2847 0.2024903103732414
2875 2848 -0.3238319040498062
2893 2848 0.4035462508011110
2851 2849 0.2441175572985015
2863 2849 -0.7490157780693991
2865 2849 -0.1455427716910306
2855 2850 0.5417950987273781
2861 2850 -0.1235084078493607
2868 2850 0.0132755516220588
2853 2851 -0.8129825739310892
2865 2851 -0.1067842646565141
2866 2851 -0.8464308603167822
2900 2852 0.0512405774101994
2930 2852 -0.1244239631336406
2931 2852 0.1897335734122745
2854 2853 0.8689535203100680
2866 2853 0.0165105136265145
2869 2853 -0.1314432203131199
2869 2854 0.8760338145084994
4710 2854 -0.1817377239295633
2858 2855 -0.8679158909878841
2868 2855 -0.3339030121768852
2871 2855 0.9448225348673971
2857 2856 0.5441145054475540
2872 2856 0.2090823084200568
2885 2856 0.5196386608478043
2886 2856 0.5883053071687978
2862 2857 -0.3693655201879941
2885 2857 -0.9888912625507370
2892 2857 -0.4120303964354380
2863 2858 -0.0210272530289620
2871 2858 0.6126590777306435
2874 2858 -0.2206793420209356
3015 2859 0.6140018921475876
3059 2859 -0.5088351084933012
3167 2859 0.5590075380718407
2873 2860 -0.2706686605426191
2882 2860 -0.3179113132114627
2917 2860 0.6773583178197577
2868 2861 0.3957945493942077
2872 2861 0.3339030121768853
2878 2861 0.6210211493270668
2875 2862 0.3097933896908476
2892 2862 0.0294503616443373
2897 2862 0.2029786065248573
2865 2863 -0.3864558854945525
2874 2863 0.8022400585955383
2877 2863 0.3332316049684134
2873 2864 -0.6259041108432264
2894 2864 -0.4244209112826930
2916 2864 -0.6778466139713737
2866 2865 -0.9404278695028535
2877 2865 -0.1748405407879879
2879 2865 -0.1327860347300638
2869 2866 0.9072847682119205
2879 2866 0.7408368175298319
2880 2866 0.0226752525406659
2882 2867 -0.1014130069887387
2918 2867 -0.1016571550645466
2871 2868 -0.3594164860988189
2878 2868 0.3174230170598469
2883 2868 0.1926633503219704
2880 2869 -0.9988402966399121
2900 2870 -0.1815546128727072
2908 2870 -0.9997558519241920
2939 2870 -0.5327616199224829
2874 2871 0.2895901364177373
2883 2871 -0.6295663319803461
2884 2871 -0.1689809869685964
2878 2872 -0.7003082369457077
2886 2872 -0.5375835444196906
2891 2872 0.9078951384014404
2916 2873 0.8519852290414136
2917 2873 0.9354228339487900
2877 2874 -0.3327433088167974
2884 2874 -0.6633808404797510
2887 2874 -0.7009796441541796
2893 2875 -0.1962034974211859
2897 2875 0.2026123844111454
2927 2875 -0.9996337778862880
2890 2876 0.4238105410931730
2956 2876 0.3037507248146001
2998 2876 0.4119083223975342
3006 2876 -0.7510910367137669
2879 2877 -0.9627063814203314
2887 2877 0.4210638752403333
2888 2877 0.0810266426587725
2883 2878 0.4951017792291024
2891 2878 -0.4104434339426862
2895 2878 0.7402874843592639
2880 2879 0.6524552140873441
2888 2879 -0.1777092806787316
2889 2879 -0.4034852137821588
2889 2880 -0.5861690115054781
2926 2881 0.5684072389904478
3047 2881 0.2059083834345530
3058 2881 0.2270882290108951
2917 2882 -0.3495284890285958
2918 2882 -0.9449446089053011
2884 2883 0.4095278786584062
2895 2883 0.8632770775475325
2896 2883 -0.7141026032288583
2887 2884 -0.3387859736930449
2896 2884 -0.3798028504287850
2899 2884 -0.5551622058778649
2886 2885 0.9978637043366803
2892 2885 -0.1374858851893673
2905 2885 -0.1157567064424574
2912 2885 -0.5878170110171819
2891 2886 0.7279580065309610
2905 2886 0.0456251716666158
2906 2886 0.4061708426160466
2888 2887 -0.9412213507492294
2899 2887 0.8738364818262276
2901 2887 0.1828974272896511
2889 2888 0.7736136967070528
2901 2888 0.1070284127323222
2902 2888 -0.1875362407300027
2902 2889 -0.4885097811822871
2946 2890 -0.8294625690481277
2998 2890 -0.6815088351084932
3024 2890 0.3185216834009827
3036 2890 -0.4712363048188727
2895 2891 0.6411633655812250
2906 2891 -0.0475173192541276
2907 2891 0.4395580919827875
2897 2892 -0.3834650715659047
2911 2892 -0.5331278420361949
2912 2892 0.8841517380291146
2908 2893 -0.6092410046693320
2927 2893 -0.3934141056550798
2940 2893 0.7196569719534898
2916 2894 0.1956541642506180
2951 2894 0.0318918424024170
2896 2895 0.6003906369212928
2907 2895 -0.9471419415875728
2910 2895 -0.9474471266823329
2899 2896 0.4885097811822872
2910 2896 0.3551438947721792
2913 2896 -0.2062135685293131
2911 2897 0.6776635029145177
2927 2897 0.4803308206427197
2928 2897 0.5485702078310495
2929 2898 0.3984801782280953
2988 2898 0.2345957823419904
3004 2898 0.9191869869075595
2901 2899 0.2352061525315103
2913 2899 -0.6668599505600146
2914 2899 0.4351023895992920
2931 2900 0.3388470107119967
2939 2900 0.8066347239600817
2966 2900 0.4435865352336192
2902 2901 0.6806543168431654
2914 2901 0.7198400830103457
2915 2901 0.7681814020203253
2915 2902 -0.1250343333231605
3058 2903 0.5518662068544573
3254 2903 0.2702414014099552
3404 2903 -0.3558153019806513
2929 2904 -0.3942075869014557
2977 2904 -0.5418561357463301
3002 2904 -0.2723776970732750
2906 2905 -0.6746726889858699
2912 2905 0.6567888424329356
2920 2905 -0.7397381511886960
2922 2905 -0.2588274788659322
2907 2906 0.1690420239875485
2919 2906 0.0384228034302805
2920 2906 -0.3224280526139104
2910 2907 -0.0998870815149389
2919 2907 0.1670278023621325
2921 2907 0.4994354075746941
2939 2908 -0.7068391979735710
2940 2908 0.9676503799554430
2947 2908 0.4911954100161748
2930 2909 -0.8618732261116367
2943 2909 -0.0307931760612812
2955 2909 0.8855555894650105
2972 2909 -0.2686544389172033
2913 2910 -0.0600299081392864
2921 2910 -0.5150608844264046
2923 2910 0.1100802636799219
2912 2911 0.1367534409619435
2928 2911 0.3028962065492722
2932 2911 0.2096926786095767
2922 2912 0.8430127872554705
2932 2912 0.1736808374279000
2914 2913 0.6141239661854916
2923 2913 0.6236457411420027
2924 2913 -0.2810449537644581
2915 2914 0.7123935666982024
2924 2914 0.9395123142185735
2925 2914 -0.5014496292001098
2925 2915 0.5131076998199409
2917 2916 -0.8447828608050783
2951 2916 -0.1106906338694418
2964 2916 -0.4481643116550188
2918 2917 0.4299752800073244
2964 2917 0.8189642017883847
2973 2917 -0.2781762138737144
2973 2918 0.3847468489638965
2977 2918 0.5378276924954986
2920 2919 -0.1173436689352092
2921 2919 0.7477340006714073
2933 2919 -0.4810022278511917
2935 2919 -0.0908536027100436
2922 2920 -0.7842341380046999
2933 2920 -0.9017303994872891
2934 2920 -0.6567278054139836
2923 2921 0.0312204351939451
2935 2921 -0.6034424878688924
2936 2921 0.9186376537369916
2932 2922 0.7825251014740440
2934 2922 -0.9515366069521165
2941 2922 0.2348399304177984
2924 2923 -0.9503158665730765
2936 2923 -0.4981536301767022
2938 2923 0.3995788445692312
2925 2924 -0.8889126255073703
2937 2924 -0.7387005218665120
2938 2924 -0.5407574694051942
2937 2925 -0.5888546403393657
2962 2926 -0.5554063539536729
3047 2926 0.0974456007568589
3054 2926 -0.3829157383953368
2928 2927 0.4117252113406782
2940 2927 -0.3973815118869595
2953 2927 -0.6016724143192846
2960 2927 0.6274300363170262
2932 2928 -0.0732139042329173
2944 2928 -0.4358958708456679
2953 2928 -0.4394360179448835
3002 2929 -0.6984771263771478
3004 2929 0.5192724387340921
2931 2930 -0.3510544145023957
2955 2930 0.5977660451063571
2967 2930 -0.3220618305001983
2966 2931 0.8366039002655110
2967 2931 0.6271858882412182
2982 2931 -0.9355449079866940
2941 2932 0.4999237037263100
2944 2932 0.4271065401165808
2934 2933 -0.4816125980407117
2935 2933 -0.0937223426007874
2942 2933 -0.0839564195684682
2945 2933 0.8890346995452743
2941 2934 0.3963438825647756
2942 2934 -0.7020783104953154
2936 2935 -0.7842341380046999
2945 2935 -0.0865199743644520
2948 2935 0.5087740714743492
2938 2936 -0.4680013428144170
2948 2936 0.4127628406628621
2950 2936 -0.2151249732963042
2938 2937 -0.9730826746421705
2949 2937 0.0214545121616261
2949 2938 -0.5118869594409009
2950 2938 0.9006317331461531
2947 2939 0.7364421521652882
2966 2939 -0.5228125858333079
2974 2939 0.1066621906186103
2947 2940 -0.1272316660054323
2960 2940 -0.0187078463087863
2968 2940 -0.6752220221564379
2942 2941 -0.3821222571489609
2944 2941 0.7747123630481887
2952 2941 -0.8245185705130161
2945 2942 -0.5789056062501907
2952 2942 0.1551866206854458
2954 2942 -0.9058809167760247
2946 2943 -0.8074282052064577
2972 2943 0.1349223303933835
2984 2943 0.6445814386425368
3009 2943 0.9563585314493239
2952 2944 -0.0530716879787592
2953 2944 -0.1471907712027345
2961 2944 0.5364848780785547
2948 2945 -0.8211615344706564
2954 2945 0.4790490432447279
2958 2945 -0.0262764366588336
3009 2946 -0.9273049104281746
3024 2946 0.7210608233893856
3030 2946 0.8572344126712852
2968 2947 0.4540238654744102
2974 2947 0.9007538071840571
2950 2948 -0.9094821008941923
2958 2948 -0.7921079134495072
2959 2948 -0.0340281380657369
2950 2949 -0.1515243995483261
2957 2949 0.2692648091067231
2957 2950 0.1878414258247627
2959 2950 -0.2681051057466354
2964 2951 -0.3283486434522538
2992 2951 -0.2784813989684743
2954 2952 0.2096926786095767
2961 2952 -0.9031342509231849
2965 2952 -0.4137394329660939
2960 2953 -0.9533677175206763
2961 2953 -0.2657856990264595
2975 2953 -0.0981780449842830
2978 2953 -0.6014893032624287
2958 2954 -0.1614123966185491
2965 2954 -0.0581377605517747
2970 2954 -0.2797631763664663
2967 2955 0.0453810235908079
2972 2955 -0.6851100192266610
2986 2955 0.0947599719229713
3006 2956 -0.9797357097079379
3034 2956 0.3572801904354992
3094 2956 -0.7219763786736656
3128 2956 0.9035004730368970
2959 2957 0.3158970915860468
2969 2957 -0.1437116611224708
2959 2958 0.9713126010925626
2970 2958 0.2098147526474807
2971 2958 0.3676564836573382
2969 2959 0.4020203253273109
2971 2959 -0.6088747825556200
2968 2960 0.2985625782036805
2978 2960 -0.5021210364085817
2985 2960 0.4974211859492783
2965 2961 -0.3802911465804010
2975 2961 -0.8491775261696219
2976 2961 -0.9191259498886074
2988 2962 -0.9329203161717582
3054 2962 0.7392498550370801
3076 2962 0.9508651997436446
3992 2963 -0.7280800805688650
4097 2963 0.5216528824732201
2973 2964 -0.1095309305093539
2992 2964 0.1596423230689412
3016 2964 0.0365916928617207
2970 2965 -0.0817590868861965
2976 2965 0.0392162846766564
2980 2965 0.4673299356059450
2974 2966 -0.4564043092135380
2982 2966 0.0328684347056489
2995 2966 0.0109561449018829
3007 2966 0.9370097964415418
2982 2967 0.9835810419019135
2986 2967 -0.8458815271462141
3013 2967 0.3589281899472030
2974 2968 0.6524552140873441
2983 2968 -0.1243018890957366
2985 2968 -0.5873287148655659
2971 2969 -0.3743705557420576
2979 2969 0.1821649830622272
2971 2970 0.9257789849543747
2980 2970 0.4582964568010499
2981 2970 0.5621814630573443
2979 2971 -0.8275704214606159
2981 2971 0.4965666676839504
2984 2972 0.2967314676351207
2986 2972 0.8666341135898923
3003 2972 0.3817560350352489
2977 2973 -0.2448500015259255
3016 2973 0.1001312295907468
3041 2973 0.0044251838740197
2983 2974 -0.5309915463728752
2995 2974 0.5574816125980406
2997 2974 0.8013855403302104
2976 2975 0.6738181707205420
2978 2975 0.8486281929990540
2991 2975 -0.8656575212866604
2993 2975 0.2870265816217537
2980 2976 0.4777062288277840
2990 2976 0.9236426892910550
2991 2976 -0.3594164860988189
3002 2977 -0.9998779259620960
3041 2977 0.3653981139561144
3106 2977 -0.9888302255317850
2985 2978 0.6296884060182502
2993 2978 0.7656788842432936
2996 2978 -0.5937986388744774
2981 2979 -0.7285683767204809
2987 2979 0.5169530320139164
2981 2980 0.6507461775566881
2989 2980 0.4579302346873380
2990 2980 -0.0473952452162236
2987 2981 -0.9063692129276406
2989 2981 0.6734519486068300
3007 2982 0.2916653950621051
3013 2982 -0.7344889675588244
3020 2982 -0.8460646382030701
2985 2983 -0.8291573839533677
2997 2983 0.7369304483169041
2999 2983 0.1993163853877378
3003 2984 -0.7019562364574115
3009 2984 0.6403088473158971
3022 2984 0.4082461012604144
2996 2985 -0.4092226935636464
2999 2985 -0.0265816217535936
3003 2986 -0.1346171452986236
3013 2986 -0.4232612079226050
3026 2986 -0.2393566698202459
2989 2987 -0.1832026123844112
3000 2987 -0.8598590044862209
3004 2988 -0.2517471846675008
3076 2988 0.0281075472273935
3102 2988 0.3594164860988189
2990 2989 0.4028138065736870
3000 2989 0.5114597003082368
3001 2989 0.4175237281411175
2991 2990 0.1584215826899014
3001 2990 -0.9075289162877285
3005 2990 -0.7825861384929960
2993 2991 0.8683431501205481
3005 2991 0.4158146916104617
3008 2991 -0.4585406048768578
3016 2992 0.0546586504715110
3038 2992 0.2618182927945800
2996 2993 -0.8508865627002777
3008 2993 0.7139805291909542
3010 2993 0.0800500503555406
3140 2994 0.5764030884731590
3419 2994 -0.0256050294503617
3634 2994 0.1064790795617543
2997 2995 0.7701956236457412
3007 2995 0.4850306711020234
3028 2995 0.5656605731376079
3032 2995 0.6197393719290749
2999 2996 0.6542863246559039
3010 2996 -0.2945951719718009
3012 2996 0.8524735251930295
2999 2997 0.2162236396374402
3019 2997 -0.4080019531846064
3028 2997 0.4177678762169255
3006 2998 0.0179754020813623
3036 2998 -0.8246406445509201
3057 2998 0.2577288125247963
3065 2998 -0.9393902401806695
3085 2998 0.3607593005157628
3012 2999 0.7588427381206702
3019 2999 -0.6050904873805963
3001 3000 0.8185979796746727
3014 3000 -0.9180883205664235
3005 3001 0.0982390820032351
3014 3001 0.4024475844599751
3017 3001 0.1135593737601857
3004 3002 0.0611896114993744
3106 3002 -0.8814050721762750
3123 3002 -0.1852778710287789
3022 3003 -0.5870845667897580
3026 3003 0.6826075014496291
3039 3003 0.3089388714255197
3102 3004 -0.7596972563859981
3123 3004 -0.3339030121768852
3008 3005 -0.2251960814233833
3017 3005 -0.8469801934873501
3018 3005 -0.6815698721274452
3065 3006 0.6826685384685811
3094 3006 -0.2735984374523148
3020 3007 0.0331736198004089
3029 3007 -0.7413251136814478
3032 3007 0.7645191808832057
3010 3008 0.8394726401562547
3018 3008 -0.5812250129703666
3021 3008 0.5247657704397717
3022 3009 -0.0956144901882992
3030 3009 0.9844355601672414
3050 3009 -0.8470412305063021
3056 3009 0.2252571184423353
3012 3010 -0.1366313669240394
3021 3010 0.6176641132847072
3023 3010 -0.3512375255592517
3034 3011 0.7742240668965727
3059 3011 -0.5606555375835445
3136 3011 0.2250740073854793
3142 3011 -0.1913815729239784
3019 3012 -0.6165654469435713
3023 3012 0.2400280770287180
3025 3012 0.2542497024445327
3020 3013 -0.5215918454542681
3026 3013 -0.0503860591448714
3043 3013 -0.7282021546067690
3045 3013 0.5968504898220770
3017 3014 -0.7501754814294870
3027 3014 0.8980681783501694
3167 3015 -0.3418988616595966
3290 3015 -0.3154087954344310
3327 3015 -0.5778069399090549
3038 3016 -0.4536576433606982
3041 3016 -0.2014526810510575
3083 3016 0.2611468855861079
3018 3017 0.9376201666310617
3027 3017 0.5501571703238013
3031 3017 0.2822046571245460
3021 3018 -0.1080050050355541
3031 3018 0.1004974517044588
3033 3018 0.9927365947447127
3025 3019 0.8676107058931242
3028 3019 -0.7247840815454574
3040 3019 -0.1043427838984344
3046 3019 -0.3174230170598468
3029 3020 0.8412427137058627
3045 3020 0.4157536545915097
3055 3020 -0.2841578417310099
3023 3021 -0.7800225836970123
3033 3021 -0.9324930570390942
3035 3021 -0.2751243629261146
3039 3022 0.3120517593920713
3056 3022 0.3954893642994477
3060 3022 -0.9569078646198920
3025 3023 0.1087984862819300
3035 3023 -0.2204351939451277
3037 3023 -0.5168309579760124
3030 3024 -0.7333903012176886
3036 3024 -0.8928189947202978
3069 3024 -0.6093630787072359
3073 3024 -0.0088808862575152
3037 3025 0.2385631885738702
3040 3025 -0.8543656727805414
3039 3026 -0.9115573595385601
3043 3026 -0.5691396832178717
3061 3026 0.4015320291756950
3031 3027 0.9634998626667073
3042 3027 -0.5472273934141056
3032 3028 0.6696066164128545
3046 3028 0.3351237525559252
3051 3028 0.2801293984801783
3064 3028 -0.0486770226142155
3032 3029 0.4260078737754449
3052 3029 -0.4833216345713676
3055 3029 0.7621387371440780
3050 3030 0.2887356181524094
3069 3030 0.4740440076906645
3086 3030 0.9613635670033875
3099 3030 -0.6467177343058566
3033 3031 0.6654560991241187
3042 3031 0.1156346324045534
3044 3031 0.0532547990356151
3051 3032 -0.9688711203344829
3052 3032 -0.2405163731803339
3035 3033 -0.5142063661610767
3044 3033 0.8807947019867550
3049 3033 -0.9489120151371807
3128 3034 0.2432020020142216
3136 3034 0.2518692587054048
3188 3034 0.3881038850062564
3037 3035 -0.2585222937711722
3049 3035 0.6479384746848964
3053 3035 -0.7299722281563769
3057 3036 -0.3440961943418683
3073 3036 -0.0876796777245399
3088 3036 -0.6114993743705557
3040 3037 -0.2383800775170141
3048 3037 0.6230353709524827
3053 3037 -0.0607013153477585
3083 3038 -0.2392345957823420
3104 3038 -0.4292428357799005
3060 3039 -0.4374828333384198
3061 3039 0.5863521225623340
3072 3039 -0.2762840662862026
3046 3040 -0.9327372051149022
3048 3040 -0.3762016663106174
3063 3040 0.6290169988097782
3083 3041 -0.7200842310861537
3106 3041 0.2562639240699485
3160 3041 -0.2463759269997253
3044 3042 -0.6591692861720633
3062 3042 -0.7342448194830165
3045 3043 -0.3430585650196845
3061 3043 0.3089999084444717
3070 3043 0.9061250648518326
3081 3043 0.3641773735770746
3049 3044 0.5143894772179327
3062 3044 0.6733909115878780
3066 3044 0.8199407940916166
3055 3045 0.1529892880031740
3070 3045 0.9046601763969848
3074 3045 -0.8106021301919615
3063 3046 -0.6599017303994873
3064 3046 -0.9994506668294321
3079 3046 -0.7021393475142674
3054 3047 0.7211828974272896
3058 3047 0.0515457625049593
3207 3047 0.6216925565355389
3240 3047 0.1405987731559191
3053 3048 0.1568956572161015
3063 3048 0.6070436719870602
3068 3048 0.1061738944669943
3053 3049 -0.9802850428785058
3066 3049 -0.8339793084505753
3067 3049 -0.2944120609149449
3056 3050 -0.7674489577929013
3071 3050 -0.0281685842463454
3075 3050 0.5233008819849239
3086 3050 -0.6275521103549302
3089 3050 -0.1205175939207129
3052 3051 0.4985198522904142
3064 3051 -0.6896877956480605
3084 3051 0.6016724143192846
3092 3051 -0.6527603991821039
3055 3052 0.8522293771172216
3078 3052 -0.6900540177617724
3084 3052 -0.5756096072267831
3067 3053 0.4020813623462629
3068 3053 -0.8465529343546861
3076 3054 -0.0961638233588672
3207 3054 -0.5334330271309549
3216 3054 -0.1447492904446547
3074 3055 0.9028290658284250
3078 3055 -0.2136600848414564
3060 3056 0.0558183538315988
3071 3056 0.4902188177129430
3080 3056 0.4500564592425307
3082 3056 0.8079775383770256
3085 3057 -0.0572222052674948
3088 3057 0.1498764000366222
3098 3057 0.9823603015228737
3240 3058 0.2593768120365001
3404 3058 -0.3023468733787041
3142 3059 0.7961973937192908
3167 3059 0.5952024903103732
3243 3059 0.9098483230079042
3269 3059 0.8455763420514542
3072 3060 -0.6447035126804407
3080 3060 -0.9927976317636646
3090 3060 -0.8878139591662343
3072 3061 0.8017517624439223
3081 3061 -0.8398388622699667
3096 3061 0.4825891903439437
3066 3062 0.2862331003753777
3087 3062 -0.3287759025849177
3068 3063 -0.1968749046296578
3079 3063 -0.4778283028656880
3093 3063 0.0937223426007874
3079 3064 -0.0267036957914976
3092 3064 0.2115848261970885
3117 3064 0.8879970702230904
3085 3065 0.6176030762657552
3094 3065 -0.6452528458510086
3146 3065 0.7585375530259102
3177 3065 0.5204321420941802
3067 3066 -0.1429181798760949
3087 3066 -0.6460463270973846
3091 3066 -0.7792901394695884
3068 3067 0.9145481734672078
3091 3067 -0.1477401043733024
3095 3067 0.2777489547410505
3093 3068 0.3972594378490555
3095 3068 -0.4861293374431592
3073 3069 -0.2506485183263649
3099 3069 -0.7453535569322794
3113 3069 0.2004150517288736
3118 3069 -0.3119296853541673
3074 3070 -0.8794518875698111
3081 3070 -0.4739219336527604
3103 3070 0.0319528794213690
3108 3070 0.8536942655720694
3075 3071 -0.1499984740745262
3082 3071 0.0383007293923765
3097 3071 0.2572405163731804
3090 3072 -0.6974394970549638
3096 3072 -0.1014130069887387
3109 3072 -0.6022827845088046
3088 3073 0.5888546403393657
3113 3073 0.3002716147343363
3119 3073 -0.7397381511886960
3078 3074 -0.7476119266335033
3103 3074 0.1935789056062502
3107 3074 -0.9848017822809534
3089 3075 -0.5775017548142949
3097 3075 -0.8392284920804468
3100 3075 -0.6658833582567827
3102 3076 0.8439283425397504
3216 3076 0.6424451429792168
3236 3076 0.0124210333567309
4267 3077 -0.6412854396191290
4446 3077 0.6918240913113805
4552 3077 0.3526413769951475
3084 3078 0.0610065004425184
3107 3078 0.8508255256813257
3110 3078 -0.2251350444044313
3093 3079 -0.9918210394604328
3117 3079 0.6340220343638416
3122 3079 0.7509689626758629
3082 3080 -0.4977874080629902
3090 3080 0.6873683889278848
3105 3080 -0.4202093569750054
3111 3080 0.2649311807611316
3096 3081 -0.9961546678060244
3108 3081 0.7585985900448622
3121 3081 -0.4838099307229835
3097 3082 0.3684499649037141
3101 3082 -0.1345561082796716
3105 3082 -0.0727866451002533
3104 3083 0.9419537949766534
3160 3083 0.7224646748252814
3184 3083 0.6321909237952819
3092 3084 0.9724112674336984
3110 3084 -0.7260048219244972
3129 3084 0.8113345744193854
3098 3085 0.6451918088320567
3139 3085 -0.5109714041566210
3146 3085 -0.1265602587969603
3089 3086 -0.8843348490859706
3099 3086 -0.2278817102572710
3112 3086 0.9454939420758690
3120 3086 0.1214331492049929
3091 3087 -0.8668172246467483
3114 3087 -0.4050721762749108
3098 3088 -0.6299325540940581
3119 3088 0.6094241157261879
3133 3088 0.0596636860255746
3100 3089 0.6172978911709952
3112 3089 -0.0202337717825861
3116 3089 0.5041352580339977
3109 3090 0.9424420911282694
3111 3090 -0.9464705343791009
3127 3090 -0.9381694998016297
3095 3091 -0.8483230079042939
3114 3091 0.1191137424848170
4712 3091 -0.2370372631000702
3117 3092 -0.5775017548142949
3129 3092 0.9821161534470657
3149 3092 0.7540208136234627
3095 3093 0.8902554399243141
3122 3093 0.7144077883236182
3124 3093 -0.2231208227790155
3128 3094 0.2845851008636737
3177 3094 0.7762382885219885
3195 3094 0.9550767540513321
3124 3095 -0.6371959593493454
4712 3095 0.5908688619647817
3109 3096 0.7001251258888517
3121 3096 0.5500961333048493
3132 3096 0.7940000610370190
3100 3097 0.6993926816614278
3101 3097 0.0165105136265145
3115 3097 -0.8680379650257881
3133 3098 -0.9160740989410077
3139 3098 0.8356273079622791
3118 3099 -0.7506637775811029
3120 3099 0.5281838435010835
3134 3099 -0.4477370525223549
3115 3100 -0.3641773735770745
3116 3100 -0.2942899868770409
3126 3100 0.1704458754234444
3105 3101 0.8459425641651661
3115 3101 -0.6679586169011505
3125 3101 -0.8292184209723197
3123 3102 0.2582781456953642
3236 3102 0.6992706076235238
3255 3102 0.7220374156926175
3107 3103 0.2486342967009492
3108 3103 0.9887691885128331
3137 3103 -0.5049897762993256
3144 3103 0.7367473372600482
3184 3104 0.9088106936857203
3189 3104 -0.8351390118106632
3111 3105 -0.3118076113162633
3125 3105 0.4183172093874936
3131 3105 -0.1967528305917539
3123 3106 0.4958952604754783
3160 3106 0.1560411389507737
3256 3106 0.1204565569017608
3261 3106 -0.0851161229285562
3110 3107 0.9011200292977690
3130 3107 -0.4639118625446333
3137 3107 -0.2560808130130925
3121 3108 -0.8990447706534013
3144 3108 -0.8697470015564440
3153 3108 -0.3848078859828487
3127 3109 0.8200018311105686
3132 3109 -0.9069185460982085
3147 3109 0.0129093295083469
3129 3110 0.8315988647114474
3130 3110 0.2535172582171086
3148 3110 -0.4828943754387036
3127 3111 0.6489761040070803
3131 3111 0.9529404583880123
3145 3111 0.5394146549882504
3116 3112 0.4950407422101504
3120 3112 0.8533280434583574
3138 3112 0.9926145207068087
3141 3112 0.2635273293252358
3118 3113 0.3910336619159520
3119 3113 0.1667226172673726
3151 3113 -0.5734733115634633
3154 3113 -0.2981963560899685
4712 3114 0.2652974028748436
4713 3114 0.7460249641407513
3125 3115 0.7741019928586688
3126 3115 -0.6708883938108463
3135 3115 -0.4035462508011108
3126 3116 0.4449903866695151
3138 3116 -0.3966490676595356
3143 3116 0.0510574663533434
3122 3117 0.8369701223792230
3149 3117 -0.6001464888454848
3164 3117 0.0261543626209295
3173 3117 0.9705801568651387
3134 3118 -0.6379894405957214
3151 3118 0.4309518723105563
3158 3118 -0.2569353312784204
3133 3119 -0.4972380748924222
3154 3119 0.3766289254432813
3169 3119 0.5728629413739432
3134 3120 0.7017120883816035
3141 3120 -0.3505050813318278
3155 3120 -0.6588641010773033
3132 3121 0.0467848750267037
3153 3121 -0.5689565721610157
3163 3121 -0.7534714804528947
3124 3122 -0.5201879940183721
3162 3122 -0.0140079958494828
3164 3122 -0.8859218115787225
3255 3123 -0.0038758507034516
3256 3123 0.9329203161717581
3157 3124 -0.7715994750816371
3162 3124 0.4608600115970336
4712 3124 -0.9029511398663289
3131 3125 -0.8834803308206427
3135 3125 -0.5124973296304208
3150 3125 -0.5548570207831049
3135 3126 0.2851954710531939
3143 3126 0.8518631550035096
3152 3126 -0.7850886562700278
3145 3127 0.9669789727469711
3147 3127 -0.9040498062074648
3161 3127 -0.1739249855037081
3188 3128 -0.5330668050172429
3195 3128 0.5029755546739096
3241 3128 0.1628772850733970
3148 3129 -0.0514847254860072
3149 3129 0.0873134556108279
3170 3129 0.8079165013580736
3137 3130 -0.6369518112735374
3148 3130 0.1628772850733970
3165 3130 -0.4809411908322397
3145 3131 -0.2704855494857631
3150 3131 0.6232184820093387
3159 3131 -0.7201452681051057
3147 3132 0.5576647236548966
3163 3132 0.1988280892361216
3171 3132 0.1982177190466017
3139 3133 0.3913998840296640
3169 3133 -0.6418958098086489
3181 3133 0.4589068269905698
3155 3134 0.2347178563798944
3158 3134 -0.5706656086916715
3168 3134 0.0083315530869472
3150 3135 -0.4056215094454787
3152 3135 0.4327829828791161
3156 3135 -0.5683462019714958
3142 3136 -0.0182805871761224
3188 3136 0.4246040223395489
3208 3136 -0.3830378124332408
3222 3136 -0.9225440229499191
3144 3137 0.7808771019623402
3165 3137 0.8215887936033204
3175 3137 0.0310983611560411
3141 3138 -0.9453718680379650
3143 3138 -0.9149143955809198
3146 3139 -0.4824060792870876
3181 3139 0.1671498764000365
3197 3139 0.8218939786980803
3290 3140 0.7150181585131383
3623 3140 -0.5375225074007386
3634 3140 0.9423200170903654
3155 3141 -0.6726584673604541
3208 3142 0.7250282296212653
3243 3142 0.7944883571886350
3260 3142 -0.9636219367046114
3152 3143 0.2477187414166693
3153 3144 -0.0619830927457503
3175 3144 0.4871669667653431
3180 3144 0.2014526810510575
3159 3145 -0.6917630542924283
3161 3145 -0.7662892544328135
3172 3145 0.7344889675588244
3177 3146 0.3567918942838832
3197 3146 0.2481460005493332
3227 3146 -0.0965910824915311
3161 3147 -0.8637043366801965
3171 3147 -0.7184362315744499
3178 3147 0.9925534836878567
3165 3148 -0.6165654469435713
3170 3148 0.7479781487472152
3182 3148 0.7176427503280740
3170 3149 0.5943479720450453
3173 3149 0.6803491317484054
3192 3149 -0.9456160161137730
3156 3150 -0.3050935392315439
3159 3150 0.5076143681142613
3166 3150 0.7999206518753623
3154 3151 -0.0659504989776299
3158 3151 0.8920255134739219
3174 3151 0.7560960722678305
3179 3151 0.4923551133762627
3156 3152 -0.3278603473006378
3163 3153 0.8445387127292703
3180 3153 0.5581530198065126
3185 3153 0.6267586291085543
3169 3154 -0.9116794335764641
3174 3154 -0.1866206854457229
3190 3154 -0.0281685842463454
3168 3155 -0.4933927426984466
3166 3156 0.8394726401562547
3162 3157 0.1259498886074404
3183 3157 0.1215552232428969
3191 3157 0.4396191290017395
4712 3157 -0.0392162846766564
4713 3157 0.8023010956144903
3168 3158 0.5693838312936796
3179 3158 -0.1268654438917203
3187 3158 0.7082430494094669
3166 3159 -0.7211828974272896
3172 3159 -0.6066774498733483
3176 3159 -0.5901364177373577
3184 3160 -0.2365489669484543
3258 3160 0.0426953947569200
3261 3160 0.5356303598132268
3172 3161 0.0134586626789148
3178 3161 0.8652302621539965
3186 3161 0.9882198553422650
3164 3162 -0.0177922910245064
3191 3162 -0.2809228797265542
3196 3162 0.9285256508072146
3171 3163 -0.6913357951597644
3185 3163 -0.6625263222144231
3194 3163 -0.8400219733268227
3173 3164 0.7148350474562821
3196 3164 -0.2638325144199958
3201 3164 0.3556321909237954
3175 3165 0.2228766747032076
3182 3165 0.1156346324045534
3199 3165 0.9410382396923733
3176 3166 0.9917600024414808
3269 3167 0.1449324015015108
3326 3167 -0.8882412182988982
3327 3167 0.9038666951506089
3187 3168 0.5349589526047547
3181 3169 0.3647877437665945
3190 3169 0.4705038605914487
3202 3169 -0.9264503921628467
3182 3170 0.3857234412671284
3192 3170 0.4395580919827875
3204 3170 -0.7558519241920225
3178 3171 0.1222266304513688
3194 3171 0.0407422101504562
3200 3171 0.3408612323374127
3176 3172 -0.8682210760826441
3186 3172 -0.8898281807916502
3193 3172 0.8471633045442060
3192 3173 -0.5571764275032807
3201 3173 0.7661671803949095
3211 3173 0.8743247779778436
3179 3174 -0.9116794335764641
3190 3174 -0.4868007446516313
3198 3174 -0.0103457747123631
3180 3175 -0.5491805780205694
3199 3175 0.9650868251594593
3206 3175 0.0211493270668661
3193 3176 -0.8193304239020966
3195 3177 0.3464156010620441
3227 3177 -0.9672231208227791
3265 3177 -0.9257179479354228
3279 3177 -0.3067415387432478
3186 3178 -0.5314798425244911
3200 3178 0.6595355082857752
3203 3178 0.2967314676351207
3187 3179 0.4725180822168644
3198 3179 -0.4703207495345927
3209 3179 0.0644856105227820
3185 3180 0.9610583819086276
3206 3180 0.9085055085909604
3210 3180 -0.2643208105716117
3197 3181 0.5023651844843897
3202 3181 -0.3130283516953032
3220 3181 0.9907834101382489
3199 3182 -0.4279610583819087
3204 3182 0.1540879543443099
3215 3182 -0.9813226722006897
3191 3183 0.8260444959868161
3214 3183 0.5007171849726859
4713 3183 0.2872707296975616
3189 3184 -0.8063905758842738
3249 3184 0.5819574571977904
3258 3184 0.3791924802392652
3194 3185 -0.7515793328653828
3210 3185 0.4151432844019898
3213 3185 0.9188818018127995
3193 3186 0.4147160252693258
3203 3186 0.8502151554918058
3205 3186 -0.0583819086275826
3209 3187 0.9727164525284586
3222 3188 -0.5334940641499069
3241 3188 0.7152623065889463
3264 3188 -0.6953032013916440
3237 3189 -0.0495315408795435
3249 3189 -0.4921720023194067
3198 3190 -0.8603473006378368
3202 3190 -0.0316476943266091
3212 3190 -0.5973998229926450
3196 3191 -0.9393292031617175
3214 3191 0.0387890255439924
3221 3191 0.7424848170415357
3204 3192 0.2323374126407667
3211 3192 0.4159978026673177
3223 3192 0.5370342112491227
3205 3193 -0.7375408185064242
3200 3194 -0.4930265205847346
3213 3194 -0.5489974669637134
3217 3194 0.7651295510727256
3241 3195 0.8481398968474381
3265 3195 -0.8682821131015961
3299 3195 -0.1426129947813349
3201 3196 0.4267403180028688
3221 3196 -0.9467146824549089
3226 3196 -0.5502792443617054
3220 3197 0.5912350840784937
3227 3197 -0.3027130954924161
3248 3197 -0.7797784356212043
3209 3198 -0.1701406903286844
3212 3198 0.3589892269661550
3225 3198 -0.9831537827692496
3206 3199 -0.6504409924619281
3215 3199 -0.6938993499557482
3224 3199 -0.0493484298226875
3203 3200 -0.6591692861720633
3217 3200 -0.4000061037018952
3218 3200 -0.6707052827539903
3211 3201 0.2331919309060946
3226 3201 -0.5907467879268776
3233 3201 0.7286904507583849
3212 3202 -0.3044831690420240
3220 3202 0.6164433729056673
3231 3202 -0.4010437330240791
3205 3203 0.7857600634784998
3218 3203 -0.2879421369060335
3219 3203 -0.1955320902127140
3215 3204 0.9198583941160314
3223 3204 0.3755912961210974
3228 3204 -0.3354899746696371
3219 3205 -0.3555711539048433
3210 3206 0.7179479354228340
3224 3206 -0.2035279396954253
3230 3206 0.6472670674764245
3216 3207 -0.1143528550065614
3240 3207 -0.3511764885402997
3310 3207 0.3721121860408338
3222 3208 -0.1807000946073793
3260 3208 0.6612445448164312
3271 3208 -0.5177465132602923
3225 3209 -0.7135532700582903
3213 3210 -0.8510696737571337
3229 3210 0.5048066652424696
3230 3210 0.3014923551133764
3223 3211 0.2357554857020783
3233 3211 0.7087923825800349
3238 3211 0.7153233436078983
3225 3212 0.6601458784752952
3231 3212 -0.7911923581652271
3242 3212 0.5841547898800623
3217 3213 -0.1185644093142491
3229 3213 -0.7421185949278237
3232 3213 -0.2909939878536332
3221 3214 0.4573198644978180
3239 3214 -0.6209601123081149
3224 3215 -0.3013092440565203
3228 3215 0.7300332651753287
3244 3215 0.9302346873378704
3236 3216 -0.3464766380809962
3310 3216 0.8934904019287697
3335 3216 -0.2018799401837215
3218 3217 -0.3525803399761955
3232 3217 0.1000701925717948
3235 3217 0.6694235053559985
3219 3218 0.3935361796929837
3234 3218 0.2830591753898739
3235 3218 0.3537400433362834
3234 3219 -0.8505813776055178
3231 3220 0.0624713888973663
3248 3220 -0.5471663563951537
3262 3220 -0.1974242378002259
3226 3221 -0.5367900631733147
3239 3221 0.5342265083773308
3246 3221 -0.3851130710776086
3264 3222 -0.8641315958128605
3271 3222 0.3530075991088595
3272 3222 0.1533555101168860
3228 3223 -0.9789422284615620
3238 3223 0.7394329660939361
3245 3223 0.2361217078157902
3230 3224 -0.0578325754570147
3244 3224 0.7817926572466201
3259 3224 -0.2480849635303812
3242 3225 -0.7125156407361064
3233 3226 -0.3967711416974395
3246 3226 0.1062959685048983
3257 3226 0.5932493057039094
3248 3227 -0.8959929197058015
3279 3227 0.7769707327494124
3285 3227 -0.2182988982818079
3244 3228 0.7781914731284525
3245 3228 0.5131687368388929
3250 3228 -0.1352885525070956
3230 3229 0.9523300881984924
3232 3229 0.8281197546311838
3252 3229 -0.9112521744438001
3253 3229 -0.2684713278603473
3253 3230 -0.7376018555253762
3259 3230 0.0920133060701316
3242 3231 0.9368266853846858
3262 3231 0.5996581926938689
3277 3231 -0.5749382000183111
3235 3232 -0.7087923825800349
3251 3232 0.3126010925626392
3252 3232 -0.5536362804040651
3238 3233 0.2789086581011384
3257 3233 -0.4015930661946471
3263 3233 -0.3672292245246742
3235 3234 0.2181157872249520
3247 3234 -0.6042359691152683
3247 3235 -0.9354838709677420
3251 3235 -0.5557725760673848
3255 3236 0.1734977263710440
3335 3236 -0.6983550523392438
3354 3236 0.2063966795861689
3249 3237 0.9127780999176001
3283 3237 0.6677144688253425
3296 3237 0.3735160374767297
3245 3238 -0.4340037232581561
3263 3238 0.3936582537308877
3267 3238 -0.3093050935392315
3246 3239 0.4741660817285684
3275 3239 -0.9442121646778772
3310 3240 0.6465346232490006
3404 3240 0.4722128971221045
3409 3240 0.3881649220252084
3264 3241 -0.0986663411358989
3299 3241 0.2576677755058443
3307 3241 -0.5347758415478988
3277 3242 -0.8791467024750511
3260 3243 0.9937742240668965
3269 3243 -0.1683095797601245
3341 3243 0.0210882900479141
3250 3244 0.1231421857356487
3259 3244 0.4655598620563373
3268 3244 0.5151829584643086
3276 3244 -0.9316385387737662
3250 3245 0.5048066652424696
3267 3245 0.3011261329996644
3274 3245 -0.5852534562211982
3257 3246 -0.8917813653981139
3275 3246 0.2982573931089205
3280 3246 0.7947325052644429
3251 3247 -0.5275124362926115
3266 3247 0.8389843440046387
3262 3248 -0.1642811365092929
3285 3248 0.6692403942991425
3292 3248 0.3606982634968108
3258 3249 0.7212439344462416
3296 3249 0.3024079103976562
3314 3249 -0.3329874568926053
3268 3250 -0.0414136173589282
3274 3250 0.7979674672688986
3252 3251 -0.4723960081789605
3266 3251 -0.5736564226203192
3270 3251 0.9737540818506425
3253 3252 -0.9198583941160314
3270 3252 0.0766930143131810
3273 3252 -0.5450300607318339
3259 3253 0.2704245124668112
3273 3253 -0.1879634998626667
3278 3253 -0.2934354686117130
3404 3254 0.0143742179631947
3546 3254 -0.5325174718466750
3668 3254 -0.0729697561571093
3256 3255 -0.7531662953581347
3354 3255 0.7264320810571612
3367 3255 0.3683889278847621
3261 3256 -0.9918820764793848
3357 3256 -0.0311593981749931
3367 3256 0.7151402325510423
3263 3257 -0.2146366771446883
3280 3257 -0.9354838709677420
3284 3257 -0.4936979277932065
3261 3258 -0.9036835840937528
3314 3258 -0.6786400952177496
3330 3258 -0.5629749443037202
3276 3259 0.3883480330820643
3278 3259 -0.3728446302682576
3281 3259 0.6708273567918943
3271 3260 -0.8548539689321574
3338 3260 0.2489394817957091
3341 3260 0.3284707174901578
3386 3260 0.0024719992675557
3330 3261 -0.0121768852809229
3357 3261 -0.2255012665181433
3277 3262 -0.1076998199407941
3292 3262 -0.0124820703756828
3301 3262 0.7105624561296426
3267 3263 -0.5481429486983855
3284 3263 -0.3132114627521592
3288 3263 -0.9663075655384991
3272 3264 -0.4483474227118748
3307 3264 -0.8197576830347606
3308 3264 -0.8280587176122318
3279 3265 0.2899563585314493
3299 3265 -0.5200048829615161
3312 3265 -0.1916867580187384
3317 3265 -0.4628742332224494
3270 3266 -0.0179754020813624
3282 3266 -0.5639515366069521
3274 3267 0.6598406933805352
3288 3267 -0.6258430738242744
3291 3267 -0.3564256721701712
3274 3268 -0.1098971526230659
3276 3268 0.1102633747367778
3287 3268 -0.8015686513870662
3293 3268 -0.1960814233832819
3326 3269 0.0287789544358654
3341 3269 -0.7236854152043215
3360 3269 0.6296273689992982
3273 3270 -0.3048493911557359
3282 3270 0.8834803308206427
3286 3270 -0.1184423352763451
3272 3271 -0.9550767540513321
3315 3271 0.5414288766136661
3338 3271 -0.2880031739249855
3308 3272 0.3598437452314829
3315 3272 -0.4814905240028077
3278 3273 0.9929807428205206
3286 3273 -0.0522171697134312
3289 3273 -0.7396771141697440
3291 3274 0.8571733756523332
3293 3274 0.2668843653675954
3280 3275 0.0263985106967375
3297 3275 0.0150456251716666
3281 3276 -0.4528641621143223
3287 3276 -0.4426709799493392
3295 3276 -0.5948973052156132
3301 3277 0.1322977385784478
3281 3278 0.4236274300363170
3289 3278 -0.7215491195410015
3294 3278 -0.9149754325998718
3285 3279 0.8790246284371472
3312 3279 -0.1255836664937284
3318 3279 0.7007965330973236
3284 3280 0.9507431257057406
3297 3280 0.5130466628009889
3300 3280 0.3926206244087038
3294 3281 -0.4544511246070742
3295 3281 -0.7623218482009338
3286 3282 -0.8707846308786279
3298 3282 0.2883083590197455
3296 3283 0.0983001190221870
3319 3283 0.4423047578356274
3333 3283 0.1811883907589953
3288 3284 -0.6264534440137943
3300 3284 -0.5959349345377971
3303 3284 0.9847407452620014
3292 3285 0.7412640766624958
3318 3285 0.4325388348033081
3322 3285 0.1078829309976501
3289 3286 0.9389019440290536
3298 3286 -0.4388256477553636
3302 3286 -0.7113559373760185
3293 3287 -0.4985198522904142
3295 3287 -0.8590044862208930
3305 3287 0.9965208899197364
3316 3287 -0.7170323801385541
3291 3288 -0.6594744712668233
3303 3288 -0.0100405896176031
3311 3288 -0.1440168462172308
3294 3289 0.9743034150212104
3302 3289 -0.0074159978026673
3304 3289 -0.7494430372020631
3327 3290 -0.7599414044618060
3542 3290 0.8746299630726035
3623 3290 -0.5191503646961882
3675 3290 -0.8253730887783440
3293 3291 0.4298532059694204
3309 3291 0.0328073976866969
3311 3291 0.9843745231482894
3301 3292 0.2498550370799890
3322 3292 0.8888515884884183
3334 3292 0.2776268807031466
3309 3293 -0.6426892910550248
3316 3293 -0.1094088564714499
3295 3294 -0.5587023529770806
3304 3294 0.9340189825128942
3306 3294 0.2315439313943908
3305 3295 -0.6175420392468032
3306 3295 0.6886501663258766
3314 3296 -0.1758171330912198
3333 3296 0.2623065889461960
3358 3296 -0.6067384868923003
3300 3297 -0.2740256965849788
3320 3297 -0.6334116641743217
3302 3298 0.0820032349620043
3313 3298 -0.6371959593493454
3307 3299 -0.7772148808252205
3317 3299 -0.4150212103640858
3348 3299 0.5228125858333079
3365 3299 -0.9154026917325357
3303 3300 -0.0709555345316935
3320 3300 0.8400219733268228
3323 3300 -0.3282265694143498
3334 3301 -0.2095706045716728
3304 3302 0.6694845423749505
3313 3302 0.0959196752830591
3321 3302 -0.6796777245399335
3311 3303 -0.9475081637012849
3323 3303 0.8886074404126103
3329 3303 -0.4645222327341533
3306 3304 0.3707083346049378
3321 3304 0.8137760551774651
3324 3304 -0.1904660176396985
3306 3305 -0.6656392101809747
3316 3305 -0.2382580034791101
3325 3305 0.8597979674672689
3331 3305 -0.7321085238196967
3324 3306 -0.5916623432111576
3325 3306 0.4774010437330241
3308 3307 -0.9555040131839961
3348 3307 0.2846461378826257
3355 3307 -0.0539872432630391
3315 3308 -0.8010193182164983
3355 3308 0.5829950865199744
3356 3308 0.4387646107364116
3311 3309 -0.4612262337107456
3316 3309 -0.8350779747917112
3328 3309 -0.2783593249305704
3336 3309 0.1046479689931943
3335 3310 0.7213049714651936
3409 3310 0.7999206518753623
3437 3310 0.1017181920834986
3328 3311 0.6138187810907316
3329 3311 -0.2659077730643635
3339 3311 -0.3241370891445662
3317 3312 -0.8749351481673635
3318 3312 0.4058046205023347
3347 3312 0.3220007934812463
3350 3312 0.3680837427900021
3321 3313 0.6376842555009614
3332 3313 0.2295907467879268
3330 3314 0.3797418134098332
3358 3314 -0.2323984496597186
3376 3314 -0.7595141453291421
3338 3315 -0.5417340617084261
3356 3315 -0.7421796319467757
3379 3315 0.4136173589281900
3331 3316 0.5435651722769861
3336 3316 0.5794549394207587
3342 3316 0.5411847285378582
3347 3317 -0.5922116763817256
3365 3317 0.6725974303415021
3383 3317 -0.0758384960478530
3322 3318 0.1128879665517135
3350 3318 -0.5269020661030915
3359 3318 -0.6575823236793115
3333 3319 -0.3038117618335521
3361 3319 0.3154698324533829
3377 3319 -0.2803125095370342
3323 3320 -0.1903439436017945
3343 3320 -0.6348765526291695
3324 3321 0.0223700674459060
3332 3321 0.6801660206915494
3340 3321 0.0163274025696585
3334 3322 -0.5151829584643086
3359 3322 -0.5674916837061679
3371 3322 -0.8228095339823603
3329 3323 0.2375255592516861
3343 3323 0.0003967406231880
3346 3323 -0.6009399700918607
3325 3324 -0.4145329142124698
3340 3324 -0.4543290505691702
3344 3324 0.1056855983153784
3331 3325 0.1069673757133702
3344 3325 -0.9494613483077486
3345 3325 0.4035462508011110
3327 3326 -0.2856227301858577
3360 3326 0.9098483230079042
3434 3326 -0.7725150303659170
3467 3326 -0.3016144291512802
3467 3327 -0.3931699575792719
3542 3327 0.1397442548905912
3336 3328 0.1013519699697867
3339 3328 -0.4692831202124088
3351 3328 0.3147373882259590
3339 3329 0.7023224585711234
3346 3329 0.4523758659627064
3352 3329 0.0686361278115177
3357 3330 0.8073061311685537
3376 3330 0.2693258461256751
3435 3330 0.5279396954252755
3342 3331 -0.2182988982818079
3345 3331 -0.9601428266243477
3364 3331 -0.1186254463332010
3340 3332 -0.5156102175969726
3349 3332 -0.6339609973448896
3358 3333 -0.5706045716727195
3377 3333 -0.2264168218024232
3393 3333 -0.8392895290993988
3371 3334 0.6730857264931180
3354 3335 -0.6830347605822932
3437 3335 0.2358165227210303
3487 3335 0.7465742973113194
3342 3336 0.9549546800134281
3351 3336 -0.5178685872981963
3363 3336 0.3212683492538224
3546 3337 -0.0923795281838435
3878 3337 -0.2610858485671560
3883 3337 0.7698904385509813
4711 3337 0.2146977141636401
3379 3338 0.9304788354136784
3386 3338 0.6431165501876888
3415 3338 -0.1064790795617542
3351 3339 0.0735801263466291
3352 3339 -0.5508896145512253
3368 3339 -0.5544297616504410
3344 3340 0.4764854884487442
3349 3340 -0.8458204901272621
3366 3340 0.3168126468703270
3360 3341 0.7210608233893856
3386 3341 0.3936582537308877
3443 3341 0.0356761375774408
3453 3341 0.1838740195928832
3363 3342 0.3551438947721792
3364 3342 -0.5229346598712119
3375 3342 -0.2461317789239174
3346 3343 -0.6541032135990479
3370 3343 0.2510147404400769
3345 3344 0.6472670674764245
3366 3344 0.6582537308877834
3369 3344 0.4237495040742210
3364 3345 0.5395977660451063
3369 3345 0.5319681386761070
3378 3345 0.8034607989745781
3352 3346 0.4376659443952757
3370 3346 -0.3939634388256478
3373 3346 0.6369518112735375
3350 3347 0.6891384624774926
3383 3347 -0.1608020264290292
4714 3347 -0.7547532578508865
3355 3348 -0.8710287789544359
3365 3348 0.1592761009552293
3390 3348 -0.9380474257637257
3405 3348 -0.7410809656056399
3366 3349 0.2955717642750328
3374 3349 0.2748802148503067
3359 3350 0.1548203985717338
3395 3350 0.8064516129032258
4714 3350 -0.2582171086764122
3363 3351 -0.0290231025116733
3368 3351 0.0592364268929106
3372 3351 0.8216498306222724
3368 3352 0.3893246253852962
3373 3352 0.3122348704489273
3380 3352 -0.9056978057191687
3362 3353 0.8096255378887296
3431 3353 -0.6625873592333751
3836 3353 0.1578722495193334
3935 3353 -0.7895443586535233
3367 3354 0.3337809381389814
3487 3354 0.6505630664998321
3521 3354 0.0497756889553513
3356 3355 -0.4239326151310771
3389 3355 0.5076143681142613
3390 3355 0.1339457380901516
3379 3356 0.1355937376018554
3389 3356 0.0577105014191106
3414 3356 -0.1977904599139378
3367 3357 -0.8397778252510147
3435 3357 0.9395123142185735
3508 3357 0.1582995086519974
3376 3358 -0.5165257728812525
3393 3358 -0.3912778099917600
3401 3358 0.7929013946958829
3371 3359 -0.0257881405072177
3395 3359 0.9899288918729210
3407 3359 0.9813226722006898
3434 3360 0.7382122257148960
3443 3360 0.7344889675588244
3479 3360 0.5648670918912320
3377 3361 -0.2441785943174536
3396 3361 0.7176427503280740
3411 3361 -0.5151829584643086
3419 3362 -0.5451521347697379
3797 3362 0.0409863582262642
3836 3362 -0.1407208471938231
3372 3363 -0.5215308084353161
3375 3363 0.9875484481337931
3381 3363 -0.4060487685781426
3375 3364 0.6739402447584459
3378 3364 0.8364818262276070
3388 3364 0.8395336771752067
3383 3365 0.2639545884578998
3405 3365 -0.0258491775261697
3416 3365 -0.9598986785485397
3369 3366 -0.1900387585070346
3374 3366 0.9243751335184789
3384 3366 0.3285317545091098
3508 3367 -0.1817987609485153
3521 3367 -0.5907467879268776
3372 3368 -0.0450148014770959
3380 3368 0.8638874477370526
3382 3368 -0.0095522934659871
3378 3369 -0.4227729117709891
3384 3369 -0.6615497299111912
3394 3369 -0.7728202154606769
3373 3370 0.8315988647114474
3387 3370 0.8422803430280466
3407 3371 -0.5682851649525438
3381 3372 -0.4792931913205359
3382 3372 -0.4833216345713676
3385 3372 0.2349620044557024
3380 3373 0.4759971922971282
3387 3373 0.0215155491805781
3392 3373 -0.7888119144260994
3384 3374 -0.7322305978576007
3391 3374 -0.0923795281838435
3381 3375 -0.5004730368968779
3388 3375 -0.6319467757194739
3398 3375 -0.7064729758598590
3401 3376 -0.4676961577196570
3435 3376 -0.0547807245094150
3461 3376 0.7946104312265390
3393 3377 0.5557115390484328
3411 3377 -0.3752861110263375
3429 3377 0.5197607348857083
3388 3378 -0.9492172002319407
3394 3378 0.2421033356730857
3403 3378 0.0168156987212744
3414 3379 0.5409405804620502
3415 3379 0.7430341502121036
3446 3379 -0.1446272164067507
3382 3380 -0.7636036255989258
3392 3380 0.3163853877376628
3397 3380 0.2735984374523148
3385 3381 -0.7875911740470596
3398 3381 -0.2399060029908139
3400 3381 -0.3632618182927946
3385 3382 -0.3887142551957763
3397 3382 -0.6151615955076755
3399 3382 0.4402905362102114
3416 3383 0.7420575579088717
3428 3383 0.6426892910550248
4714 3383 -0.1064790795617542
3391 3384 0.1723380230109561
3394 3384 -0.4273506881923886
3402 3384 0.6685689870906706
3399 3385 0.4697714163640248
3400 3385 -0.1391338847010712
3415 3386 0.1183202612384411
3453 3386 0.6074098941007722
3468 3386 0.6951200903347881
3392 3387 0.7507858516190069
3406 3387 -0.3228553117465743
3398 3388 0.4682454908902249
3403 3388 -0.1675160985137486
3413 3388 0.1826532792138431
3390 3389 -0.1626331369975891
3414 3389 -0.3445234534745323
3425 3389 0.1618396557512132
3405 3390 0.8376415295876949
3425 3390 0.9939573351237525
3449 3390 0.6685689870906706
3402 3391 0.1312601092562640
3412 3391 0.5325174718466750
3397 3392 -0.7866756187627797
3406 3392 -0.2417981505783258
3408 3392 0.6377452925199134
3401 3393 0.6279793694875941
3429 3393 -0.7418134098330638
3441 3393 -0.8972746971037935
3402 3394 0.7490768150883511
3403 3394 0.1130100405896175
3426 3394 0.5843379009369183
3407 3395 0.0658894619586778
3433 3395 0.1796624652851955
3447 3395 -0.5726798303170872
4714 3395 0.1234473708304087
3411 3396 0.0995208594012269
3424 3396 0.8328806421094395
3445 3396 -0.9152195806756798
3399 3397 0.6633808404797510
3408 3397 0.8531449324015015
3410 3397 0.7218543046357615
3400 3398 -0.8402050843836787
3413 3398 0.6379894405957214
3418 3398 0.0530716879787592
3420 3398 0.5825678273873105
3400 3399 0.6998199407940917
3410 3399 0.1404156620990631
3417 3399 0.7139194921720022
3417 3400 0.4897305215613270
3418 3400 -0.8743858149967956
3441 3401 0.9713126010925626
3461 3401 0.2437513351847895
3412 3402 0.7901547288430433
3426 3402 0.6834620197149570
3427 3402 -0.4660481582079531
3413 3403 -0.9926755577257607
3426 3403 0.6641132847071749
3430 3403 0.0090029602954191
3409 3404 0.3909115878780480
3668 3404 0.9081392864772484
3683 3404 0.6287118137150181
3737 3404 -0.1317484054078799
3416 3405 -0.7078768272957549
3449 3405 -0.4473708304086429
3460 3405 0.2950224311044649
3408 3406 -0.8638874477370525
3422 3406 -0.5111545152134770
3447 3407 0.5593737601855526
3410 3408 -0.3085726493118076
3422 3408 0.0760216071047091
3423 3408 0.1448713644825588
3437 3409 -0.4255195776238289
3622 3409 -0.5338602862636188
3683 3409 0.9827875606555376
3417 3410 0.6580706198309274
3421 3410 0.5575426496169926
3423 3410 0.2809228797265542
3429 3411 -0.7491378521073031
3445 3411 -0.2951445051423689
3466 3411 -0.1014740440076907
3427 3412 0.7086092715231789
3432 3412 0.9320657979064302
3420 3413 0.8191473128452407
3430 3413 0.9301126132999664
3438 3413 -0.0522782067323831
3425 3414 -0.1578112125003814
3446 3414 -0.6804101687673574
3464 3414 0.3964659566026796
3446 3415 0.6650898770104068
3468 3415 0.2826929532761620
3498 3415 0.3967711416974395
3428 3416 -0.5581530198065127
3460 3416 0.2801293984801783
3471 3416 0.4370555742057558
3418 3417 -0.8273262733848079
3421 3417 0.6813867610705893
3436 3417 0.0037537766655475
3439 3417 0.5061494796594135
3420 3418 0.5463728751487777
3439 3418 -0.0843226416821803
3444 3418 -0.0574053163243508
3634 3419 0.6436048463393047
3797 3419 -0.3644215216528824
3805 3419 0.0533158360545671
3438 3420 -0.4172185430463576
3444 3420 0.7551194799645986
3454 3420 0.6306649983214820
3423 3421 -0.1976683858760339
3436 3421 -0.0348826563310648
3440 3421 -0.7767876216925566
3423 3422 0.8689535203100680
3442 3422 0.6942045350505082
3440 3423 0.8639484847560046
3442 3423 0.6207159642323068
3445 3424 -0.0538041322061831
3455 3424 -0.9985961485641042
3475 3424 -0.7177648243659780
3449 3425 -0.5260475478377635
3464 3425 0.6743064668721579
3499 3425 0.1134983367412337
3427 3426 0.5766472365489670
3430 3426 0.1407208471938231
3451 3426 -0.3000885036774804
3452 3426 -0.0689413129062777
3432 3427 0.5222022156437880
3448 3427 -0.1371807000946074
3452 3427 0.5956297494430371
3433 3428 0.8433179723502304
3471 3428 -0.3674733726004822
3482 3428 -0.9426252021851252
4714 3428 -0.7642139957884457
3441 3429 0.8486892300180060
3466 3429 0.0457472457045198
3494 3429 -0.0909756767479476
3438 3430 0.2709128086184271
3451 3430 -0.6163212988677633
3458 3430 0.2890408032471694
3738 3431 -0.6750389110995819
3935 3431 0.5112155522324289
4131 3431 0.4208807641834773
3448 3432 0.2353892635883663
3457 3432 -0.6835840937528611
3447 3433 0.0336619159520248
3482 3433 0.3982360301522874
3502 3433 -0.4365062410351879
4714 3433 0.8677938169499801
3467 3434 0.8236640522476881
3479 3434 -0.4557329020050661
3544 3434 0.0345164342173527
3583 3434 0.3566698202459793
3461 3435 -0.2354503006073183
3508 3435 0.1589709158604693
3593 3435 0.8974578081606495
3642 3435 0.5876949369792779
3439 3436 -0.2126834925382244
3440 3436 0.4153263954588458
3450 3436 -0.2637104403820918
3456 3436 -0.4984588152714622
3487 3437 -0.0070497756889554
3622 3437 -0.7580492568742943
3676 3437 0.0705893124179815
3454 3438 0.6224860377819148
3458 3438 0.5596789452803126
3463 3438 0.8510086367381817
3444 3439 0.0227973265785699
3450 3439 0.3065584276863917
3462 3439 -0.7516403698843348
3442 3440 0.4725791192358164
3456 3440 -0.6353648487807855
3459 3440 -0.1468245490890225
3461 3441 -0.6822412793359172
3494 3441 -0.1411481063264870
3551 3441 -0.7457808160649434
3459 3442 -0.4572588274788659
3453 3443 -0.3376873073519089
3479 3443 0.1205786309396648
3533 3443 -0.0221869563890500
3553 3443 0.6620990630817591
3454 3444 0.9852290414136173
3462 3444 0.4574419385357220
3465 3444 -0.9924314096499527
3476 3444 0.5805536057618945
3466 3445 0.8194524979400006
3475 3445 0.3459273049104281
3513 3445 0.6884670552690206
3464 3446 0.9404278695028534
3498 3446 -0.7917416913357952
3527 3446 -0.2533951841792047
3502 3447 -0.1338236640522477
3452 3448 0.0216986602374341
3457 3448 -0.1405987731559191
3472 3448 0.8935514389477217
3474 3448 0.7694631794183171
3460 3449 -0.6536759544663839
3499 3449 0.5829950865199744
3516 3449 0.2278817102572710
3456 3450 -0.5416730246894741
3462 3450 -0.4174016541032136
3469 3450 -0.1715445417645802
3452 3451 0.0389721366008484
3458 3451 -0.8480788598284860
3470 3451 -0.1872310556352428
3477 3451 -0.8690145573290200
3470 3452 0.3746147038178655
3472 3452 0.7467574083681754
3468 3453 -0.7731254005554369
3533 3453 0.2808008056886502
3554 3453 0.7835627307962278
3463 3454 -0.1602526932584613
3465 3454 -0.6951811273537400
3478 3454 -0.9729606006042665
3475 3455 0.4524369029816584
3481 3455 0.5673085726493119
3501 3455 -0.4514603106784265
3459 3456 0.1303445539719841
3469 3456 0.2997833185827203
3473 3456 -0.4268013550218207
3474 3457 0.8282418286690878
3480 3457 -0.4253975035859249
3463 3458 -0.4104434339426862
3477 3458 0.4182561723685416
3483 3458 -0.5958738975188451
3473 3459 0.7520676290169988
3471 3460 0.6266365550706503
3516 3460 -0.2566911832026124
3532 3460 -0.3134556108279671
3551 3461 0.4330271309549241
3593 3461 0.0969573046052430
3469 3462 -0.5007171849726859
3476 3462 0.7963194677571948
3485 3462 -0.6662495803704946
3478 3463 0.6147953733939635
3483 3463 0.5557115390484328
3489 3463 0.9893795587023531
3499 3464 -0.9060640278328806
3527 3464 -0.9610583819086276
3574 3464 0.0005798516800439
3476 3465 -0.9939573351237525
3478 3465 0.4775231177709280
3484 3465 -0.8779869991149633
3490 3465 -0.5552232428968169
3494 3466 0.4099551377910702
3513 3466 0.6078981902523881
3564 3466 -0.9468367564928128
3542 3467 0.6418958098086489
3544 3467 -0.0240791039765618
3630 3467 0.0513016144291514
3498 3468 -0.5414288766136661
3554 3468 -0.2622455519272439
3585 3468 0.1930906094546343
3473 3469 -0.4394360179448835
3485 3469 0.4211249122592853
3488 3469 0.4614093447676015
3492 3469 0.9425031281472214
3472 3470 -0.7094637897885068
3477 3470 -0.9177220984527116
3491 3470 -0.4311349833674123
3497 3470 0.4130680257576220
3482 3471 0.2999053926206243
3532 3471 0.3884701071199683
3555 3471 0.8551591540269172
3474 3472 0.3193151646473587
3486 3472 -0.8504593035676138
3491 3472 0.5441755424665060
3488 3473 -0.9568468276009400
3480 3474 -0.5189062166203803
3486 3474 -0.5878780480361339
3501 3475 -0.2648091067232277
3513 3475 -0.1341898861659596
3547 3475 0.8300119022186956
3485 3476 0.9033783989989930
3490 3476 -0.3166905728324229
3495 3476 -0.3492843409527878
3483 3477 -0.0964690084536272
3497 3477 0.4488357188634906
3505 3477 0.5960570085757011
3484 3478 0.7219763786736655
3489 3478 -0.1094698934904019
3496 3478 0.9989623706778161
3553 3479 -0.9272438734092227
3583 3479 -0.0693075350199897
3625 3479 -0.7106234931485946
3486 3480 0.9030121768852810
3493 3480 -0.4691000091555528
3509 3480 0.6268807031464583
3500 3481 -0.7574999237037263
3501 3481 0.1570177312540055
3523 3481 0.7142857142857142
3502 3482 -0.6146732993560595
3555 3482 0.6084475234229560
3582 3482 -0.5641346476638081
3489 3483 -0.1550035096285898
3505 3483 -0.2021851252784814
3511 3483 -0.1643421735282449
3490 3484 0.7236854152043215
3496 3484 -0.0161442915128025
3504 3484 0.6442152165288246
3492 3485 -0.3013092440565203
3495 3485 -0.6463515121921446
3503 3485 -0.8409375286111026
3491 3486 0.7550584429456466
3493 3486 -0.0392162846766564
3506 3486 0.2716452528458511
3521 3487 0.8273873104037599
3676 3487 -0.1219824823755608
3708 3487 0.0244453260902737
3492 3488 0.3336588641010774
3507 3488 0.2300180059205907
3496 3489 -0.1391338847010712
3511 3489 0.6327402569658498
3515 3489 -0.5479598376415296
3495 3490 0.2053590502639850
3504 3490 -0.5370952482680746
3510 3490 0.6840723899044772
3497 3491 0.4012268440809350
3506 3491 -0.9790032654805140
3520 3491 -0.8914151432844020
3503 3492 0.2227546006653036
3507 3492 0.0961027863399151
3512 3492 -0.2115237891781365
3506 3493 0.8942838831751456
3509 3493 -0.3323160496841334
3529 3493 0.1561021759697256
3551 3494 0.0217596972563860
3564 3494 0.1618396557512132
3618 3494 0.3418988616595966
3503 3495 -0.4336985381633961
3510 3495 0.9031952879421370
3514 3495 -0.0489211706900236
3504 3496 0.3652760399182104
3515 3496 -0.7509689626758629
3518 3496 0.8189642017883847
3505 3497 0.6433606982634967
3520 3497 0.9733268227179785
3530 3497 -0.6417126987517929
3527 3498 0.7265541550950652
3585 3498 0.1096530045472579
3608 3498 -0.6760765404217658
3516 3499 -0.8914761803033540
3574 3499 -0.0834681234168523
3595 3499 0.6742454298532059
3517 3500 0.8553422650837732
3523 3500 -0.0476393932920316
3536 3500 -0.2682271797845394
3523 3501 0.2080446790978729
3547 3501 -0.7435834833826716
3568 3501 -0.0829187902462843
3582 3502 -0.1941282387768182
3512 3503 -0.3371379741813409
3514 3503 -0.8857997375408185
3519 3503 -0.0850550859096042
3510 3504 0.3837092196417127
3518 3504 0.3599047822504349
3524 3504 -0.7016510513626515
3511 3505 -0.1621448408459731
3530 3505 -0.7136143070772423
3534 3505 -0.6558732871486557
3520 3506 0.1471297341837825
3529 3506 -0.7498092593157750
3545 3506 -0.9162572099978636
3512 3507 0.1185033722952971
3522 3507 0.5164036988433485
3521 3508 0.4914395580919828
3642 3508 -0.9644154179509873
3674 3508 -0.9316385387737662
3529 3509 -0.2453993346964934
3548 3509 -0.9983520004882962
3514 3510 -0.6344492934965056
3524 3510 0.8909878841517380
3528 3510 0.6658223212378307
3515 3511 0.6821802423169652
3534 3511 0.4294259468367565
3538 3511 -0.6596575823236793
3519 3512 0.5236060670796838
3522 3512 -0.8962981048005616
3525 3512 0.3401287881099888
3547 3513 0.6021607104709006
3564 3513 0.1984008301034577
3601 3513 0.3748588518936735
3519 3514 -0.3873714407788323
3528 3514 -0.3913998840296640
4715 3514 0.4603717154454177
3518 3515 0.4831385235145116
3538 3515 0.3909726248970000
3541 3515 0.6088747825556200
3532 3516 -0.4795373393963439
3595 3516 0.9212012085329753
3610 3516 0.8192083498641927
3526 3517 0.3042390209662160
3536 3517 0.8729819635608997
3540 3517 -0.5894039735099338
3524 3518 0.1199682607501449
3541 3518 0.8638264107181006
3550 3518 -0.4997405926694540
3525 3519 -0.4636677144688254
3535 3519 0.9423810541093174
4715 3519 -0.8698690755943480
3530 3520 -0.4955290383617664
3545 3520 0.1026947843867305
3566 3520 0.5419782097842341
3674 3521 -0.6702169866023744
3708 3521 -0.7737968077639088
3525 3522 0.0257271034882656
3539 3522 -0.6448255867183447
3536 3523 -0.4000671407208471
3568 3523 0.9154637287514877
3581 3523 -0.4273506881923886
3528 3524 0.5308084353160192
3550 3524 -0.3563646351512192
3556 3524 -0.9855952635273293
3535 3525 -0.2386242255928220
3539 3525 0.9808954130680259
3531 3526 -0.1728873561815241
3540 3526 0.1170384838404492
3574 3527 0.7327799310281686
3608 3527 -0.4860683004242072
3637 3527 -0.9697866756187628
3556 3528 0.6664937284463026
3560 3528 0.9084444715720084
4715 3528 0.6127201147495955
3545 3529 -0.4358958708456679
3548 3529 -0.5465559862056337
3586 3529 -0.2546159245582446
3534 3530 -0.5816522721030305
3566 3530 0.4668416394543291
3578 3530 0.9776604510635700
3537 3531 -0.0981780449842830
3540 3531 0.4850306711020234
3557 3531 -0.5087130344553972
3555 3532 0.7350993377483444
3610 3532 -0.3753471480452895
3620 3532 -0.1344340342417676
3553 3533 -0.9033173619800409
3554 3533 0.4941251869258705
3613 3533 -0.8270821253089999
3621 3533 -0.9072847682119205
3538 3534 0.7561571092867825
3577 3534 0.6212652974028749
3578 3534 0.0882290108951078
3539 3535 0.6168095950193793
3562 3535 0.8936735129856257
3563 3535 -0.4786828211310160
4715 3535 -0.8740806299020356
3540 3536 -0.7375408185064242
3579 3536 0.7622608111819820
3581 3536 -0.7472457045197913
3543 3537 -0.3414716025269325
3557 3537 -0.7313150425733207
3558 3537 -0.4241767632068850
3541 3538 -0.6185796685689871
3570 3538 0.3645435956907865
3577 3538 -0.5278176213873714
3552 3539 -0.7918637653736992
3563 3539 0.1351664784691915
3557 3540 0.0146794030579547
3579 3540 0.1983397930845057
3550 3541 -0.2302621539963988
3569 3541 0.9215063936277352
3570 3541 0.1684316537980286
3630 3542 0.4217963194677572
3675 3542 0.3769341105380413
3697 3542 -0.7288125247962889
3705 3542 0.5935544907986694
3549 3543 0.7586596270638142
3558 3543 0.4245429853205969
3559 3543 0.2706076235236672
3583 3544 -0.7800836207159643
3630 3544 0.8535721915341654
3645 3544 -0.3252357554857020
3669 3544 -0.4562822351756340
3566 3545 -0.5580919827875607
3586 3545 0.7236854152043215
3597 3545 0.4757530442213203
3668 3546 -0.1515243995483261
3840 3546 0.5804315317239905
3878 3546 0.6221808526871548
3568 3547 0.4202703939939574
3601 3547 0.3485518967253640
3616 3547 0.3176061281167029
3586 3548 0.9838862269966735
3599 3548 0.7597582934049500
3552 3549 0.6229743339335307
3559 3549 0.9171117282631915
3561 3549 -0.9848017822809534
3556 3550 0.8834192938016907
3569 3550 0.4772789696951201
3571 3550 0.0412305063020721
3593 3551 -0.5084078493606372
3618 3551 0.1774651326029237
3655 3551 -0.3825495162816248
3561 3552 -0.0206610309152501
3563 3552 0.3235877559739981
3565 3552 -0.4253364665669729
3613 3553 0.2499771111178930
3625 3553 0.0976897488326671
3650 3553 0.4561601611377299
3585 3554 0.1086153752250740
3621 3554 0.6695455793939025
3646 3554 0.3254188665425581
3582 3555 0.6614886928922392
3620 3555 0.7840510269478438
3640 3555 0.8982512894070254
3560 3556 0.4877162999359110
3571 3556 0.7893612475966674
3573 3556 -0.9241309854426710
3558 3557 0.4379100924710837
3579 3557 -0.7009796441541796
3580 3557 0.0368968779564807
3559 3558 0.3701590014343699
3567 3558 -0.8022400585955382
3580 3558 -0.1704458754234444
3561 3559 -0.1994384594256416
3567 3559 -0.3414105655079805
3562 3560 -0.3391521958067568
3573 3560 -0.7441938535721915
3575 3560 -0.3279213843195898
4715 3560 -0.2006591998046815
3565 3561 -0.6487929929502243
3567 3561 -0.2896511734366893
3563 3562 0.1423078096865749
3575 3562 -0.3428754539628285
3576 3562 -0.3361613818781091
4715 3562 0.0399487289040803
3565 3563 0.5737174596392711
3572 3563 0.4345530564287241
3576 3563 0.1211279641102330
3601 3564 -0.7120883816034425
3618 3564 0.0054017761772516
3649 3564 -0.4930265205847346
3567 3565 0.1171605578783532
3572 3565 -0.2894070253608814
3578 3566 -0.6470839564195685
3597 3566 0.0746177556688132
3605 3566 -0.7873470259712516
3572 3567 0.1421246986297189
3580 3567 0.5643177587206640
3584 3567 -0.0574053163243508
3581 3568 0.0439161351359600
3614 3568 -0.4813074129459517
3616 3568 -0.7037263100070192
3570 3569 -0.2568132572405164
3571 3569 0.9064302499465926
3588 3569 -0.6235847041230507
3589 3569 0.6724143192846461
3577 3570 -0.0884121219519639
3589 3570 0.0778527176732688
3596 3570 -0.8666341135898923
3573 3571 0.6854762413403730
3588 3571 0.7278969695120090
3591 3571 0.9412213507492293
3576 3572 0.9697866756187628
3584 3572 0.8073061311685537
3587 3572 0.7387005218665121
3575 3573 -0.0288399914548173
3591 3573 0.1185033722952971
3592 3573 0.3678395947141941
3595 3574 -0.1307718131046479
3637 3574 0.6469008453627125
3647 3574 -0.6223639637440108
3576 3575 0.2663350321970275
3590 3575 0.5400250251777703
3592 3575 -0.6478164006469924
3587 3576 -0.3408001953184606
3590 3576 0.5769524216437270
3578 3577 -0.9002655110324411
3596 3577 0.3273110141300699
3603 3577 -0.6158940397350994
3603 3578 -0.3884090701010162
3605 3578 0.8870204779198585
3580 3579 -0.2666402172917874
3581 3579 0.5387432477797784
3598 3579 -0.9977416302987762
3604 3579 -0.7667775505844294
3584 3580 -0.1070894497512741
3594 3580 0.2030396435438093
3598 3580 0.3654591509750664
3604 3581 -0.2796411023285623
3614 3581 -0.2311166722617267
3640 3582 -0.6354258857997375
3625 3583 0.1103854487746818
3645 3583 0.0035706656086916
3667 3583 0.7437665944395275
3587 3584 -0.1702017273476364
3594 3584 -0.0442823572496719
3600 3584 0.5143284401989807
3608 3585 -0.2373424481948302
3646 3585 -0.9546494949186681
3654 3585 -0.2856227301858577
3597 3586 0.3537400433362834
3599 3586 0.9019745475630969
3626 3586 -0.3571581163975951
3631 3586 -0.0887783440656759
3590 3587 -0.3094271675771355
3600 3587 -0.5739616077150792
3602 3587 -0.4826502273628956
3589 3588 0.7947935422833949
3591 3588 0.9752189703054903
3611 3588 -0.6049684133426924
3615 3588 -0.7447431867427594
3596 3589 -0.6933500167851803
3615 3589 0.2825708792382580
3592 3590 0.8857387005218664
3602 3590 0.7208777123325296
3606 3590 0.5696279793694876
3592 3591 -0.9033173619800409
3609 3591 -0.1116672261726738
3611 3591 -0.3836481826227607
3606 3592 -0.5416730246894741
3609 3592 -0.1509140293588062
3642 3593 0.9414654988250375
3655 3593 -0.1731315042573320
3696 3593 0.8146916104617450
3598 3594 -0.4766685995056001
3600 3594 -0.4321115756706443
3607 3594 0.3630787072359385
3610 3595 -0.1305887020477919
3647 3595 0.6388439588610493
3653 3595 0.5739005706961271
3603 3596 0.7138584551530502
3615 3596 -0.5658436841944640
3633 3596 -0.0742515335551012
3605 3597 -0.7264931180761132
3626 3597 -0.5782952360606708
3629 3597 -0.5750602740562151
3604 3598 0.0041199987792597
3607 3598 -0.2976470229194006
3619 3598 -0.3061922055726798
3631 3599 -0.7195348979155858
3638 3599 0.3791314432203132
3602 3600 0.8811609241004670
3607 3600 0.8595538193914609
3612 3600 0.8375194555497909
3616 3601 -0.9346903897213660
3649 3601 -0.8071840571306498
3662 3601 -0.5105441450239570
3606 3602 0.2251350444044313
3612 3602 -0.8477126377147740
3617 3602 -0.0639973143711661
3605 3603 0.9860835596789452
3633 3603 0.3422650837733086
3635 3603 -0.3755912961210974
3614 3604 0.1155735953856014
3619 3604 -0.5397808771019623
3632 3604 0.4784997100741599
3629 3605 0.7466353343302714
3635 3605 -0.4646443067720573
3609 3606 0.7049470503860591
3617 3606 0.6425672170171208
3624 3606 -0.6705221716971344
3612 3607 0.2529679250465406
3619 3607 0.0793176061281167
3627 3607 -0.8396557512131108
3637 3608 0.1853389080477310
3654 3608 -0.5387432477797784
3670 3608 0.1153294473097934
3611 3609 -0.8951384014404736
3624 3609 -0.9114352855006561
3636 3609 -0.1425519577623828
3620 3610 -0.3403118991668447
3653 3610 0.1205175939207128
3664 3610 -0.4476760155034029
3615 3611 0.5634022034363841
3636 3611 -0.6365855891598254
3644 3611 -0.7954649494918669
3617 3612 0.7338785973693045
3627 3612 0.6591692861720633
3628 3612 -0.6686910611285745
3621 3613 -0.9915158543656728
3650 3613 0.7814874721518601
3661 3613 0.3918881801812799
3616 3614 -0.2556535538804284
3632 3614 -0.7792901394695884
3658 3614 0.9355449079866940
3633 3615 0.1238135929441206
3644 3615 0.2671285134434034
3658 3616 -0.4056215094454787
3662 3616 0.6954863124485000
3624 3617 0.0801110873744926
3628 3617 -0.9468977935117648
3649 3618 0.1818597979674672
3655 3618 -0.6338999603259377
3688 3618 0.9606921597949156
3627 3619 -0.8401440473647267
3632 3619 -0.6611224707785271
3639 3619 0.2950224311044649
3640 3620 0.4774620807519760
3664 3620 -0.8131046479689932
3673 3620 -0.9390850550859096
3646 3621 -0.8857387005218665
3661 3621 -0.1199072237311930
3678 3621 -0.0512405774101993
3676 3622 0.2137211218604083
3683 3622 0.2979522080141606
3744 3622 -0.4677571947386090
3634 3623 -0.0039979247413556
3675 3623 -0.7791070284127324
3780 3623 -0.6508682515945921
3807 3623 -0.3985412152470473
3628 3624 -0.2041993469038972
3636 3624 0.7717825861384930
3641 3624 0.9280373546555987
3650 3625 0.9245582445753349
3667 3625 -0.6143070772423476
3679 3625 0.1099581896420179
3629 3626 0.2340464491714225
3631 3626 0.1111789300210577
3648 3626 -0.6876125370036927
3652 3626 -0.5323343607898190
3628 3627 -0.0456862086855678
3639 3627 -0.0512405774101993
3643 3627 -0.3320719016083254
3641 3628 0.2066408276619769
3643 3628 0.0909756767479477
3635 3629 -0.8299508651997436
3648 3629 -0.9638660847804194
3669 3630 -0.7720267342143010
3692 3630 0.9800408948026977
3697 3630 0.6467787713248085
3638 3631 0.1623889889217811
3652 3631 -0.7846003601184118
3657 3631 0.8142033143101290
3639 3632 0.0715048677022614
3658 3632 0.1572008423108615
3663 3632 -0.7285073397015289
3635 3633 -0.0182805871761224
3644 3633 0.1905270546586504
3651 3633 0.0486770226142155
3805 3634 -0.4880214850306711
3807 3634 -0.4652546769615772
3872 3634 0.6493423261207922
3648 3635 -0.5053559984130376
3651 3635 0.1794183172093875
3660 3635 0.0983611560411390
3641 3636 0.5148167363505967
3644 3636 -0.5325785088656270
3656 3636 0.8384350108340708
3647 3637 0.5342265083773308
3670 3637 -0.4648884548478652
3680 3637 0.7236243781853695
3657 3638 0.2159794915616322
3666 3638 0.6701559495834224
3643 3639 -0.7996154667806025
3663 3639 0.8720053712576679
3673 3640 0.2485122226630452
3643 3641 -0.5911740470595417
3656 3641 -0.3332316049684133
3659 3641 -0.1487777336954863
3674 3642 0.8985564745017853
3696 3642 0.5278786584063235
3719 3642 -0.3935972167119358
3659 3643 0.6301767021698661
3663 3643 -0.6968291268654438
3651 3644 -0.5163426618243965
3656 3644 -0.9544663838618122
3665 3644 0.9436628315073092
3667 3645 -0.1821649830622273
3669 3645 -0.4680623798333690
3691 3645 0.2534562211981566
3654 3646 0.8755455183568834
3678 3646 0.5158543656727805
3687 3646 0.4767296365245521
3653 3647 0.7444990386669514
3680 3647 0.1022675252540666
3686 3647 0.7086092715231789
3652 3648 0.3612475966673787
3660 3648 -0.5437482833338420
3671 3648 -0.3910336619159520
3662 3649 -0.9526963103122044
3688 3649 -0.5874507889034699
3698 3649 0.1658070619830927
3661 3650 -0.3094271675771355
3679 3650 0.7695242164372691
3693 3650 0.5524155400250252
3660 3651 -0.7933896908474990
3665 3651 -0.9493392742698447
3672 3651 -0.3481856746116520
3657 3652 -0.2129886776329845
3671 3652 -0.4510330515457625
3682 3652 0.8106021301919615
3664 3653 -0.7662892544328135
3686 3653 0.7886898403881955
3694 3653 0.3061311685537278
3670 3654 0.2411267433698538
3687 3654 0.8717001861629079
3700 3654 0.9807733390301219
3688 3655 -0.2715842158268991
3696 3655 0.0292672505874814
3720 3655 -0.8108462782677694
3659 3656 -0.5607776116214485
3665 3656 0.7489547410504471
3677 3656 -0.1070284127323221
3666 3657 0.4828333384197516
3682 3657 -0.0764488662373730
3684 3657 -0.8586382641071810
3662 3658 0.3554490798669392
3663 3658 0.6487929929502243
3685 3658 -0.6519669179357280
3695 3658 -0.6452528458510086
3663 3659 -0.5073702200384533
3677 3659 0.1903439436017944
3681 3659 -0.9916989654225288
3671 3660 0.0856044190801721
3672 3660 0.4658650471510972
3690 3660 0.8709067049165318
3678 3661 0.8731040375988037
3693 3661 0.6514786217841120
3707 3661 0.6517227698599199
3695 3662 -0.4266792809839167
3698 3662 0.2552873317667166
3681 3663 0.2273323770867031
3685 3663 0.1823480941190831
3673 3664 -0.0705893124179815
3694 3664 -0.8250068666646321
3703 3664 -0.9920041505172887
3672 3665 0.7086092715231789
3677 3665 -0.7193517868587298
3699 3665 -0.2743308816797387
3684 3666 -0.6411023285622730
3689 3666 0.1979125339518417
3679 3667 -0.4656208990752891
3691 3667 -0.2430799279763176
3704 3667 0.0173039948728904
3737 3668 0.5801263466292306
3820 3668 -0.5239112521744438
3840 3668 0.1863155003509629
3691 3669 -0.5930661946470535
3692 3669 0.0534379100924711
3713 3669 -0.8980071413312174
3680 3670 0.2527237769707327
3700 3670 -0.8712118900112918
3709 3670 0.8629718924527725
3682 3671 -0.4665974913785210
3690 3671 0.0232245857112339
3702 3671 -0.3104037598803674
3690 3672 0.3643604846339306
3699 3672 -0.9247413556321910
3703 3673 0.4666585283974731
3708 3674 -0.4684896389660329
3719 3674 0.1852778710287790
3776 3674 0.9822382274849697
3705 3675 0.4059266945402387
3770 3675 -0.5750602740562151
3780 3675 -0.7029938657795953
3708 3676 -0.5061494796594135
3744 3676 0.6620380260628072
3786 3676 -0.7131260109256263
3681 3677 -0.1915036469618824
3699 3677 -0.2974639118625446
3701 3677 0.7015289773247475
3687 3678 -0.5117038483840449
3707 3678 -0.7044587542344432
3715 3678 -0.1850947599719229
3693 3679 0.1006195257423628
3704 3679 -0.2886135441145055
3717 3679 0.4783776360362559
3686 3680 -0.6290169988097781
3709 3680 0.1385235145115513
3716 3680 -0.5795159764397106
3685 3681 0.0580767235328226
3701 3681 -0.0170598467970824
3706 3681 -0.1684926908169805
3684 3682 -0.9907223731192969
3702 3682 -0.4730063783684805
3712 3682 0.1553086947233497
3737 3683 -0.2787255470442823
3744 3683 -0.3146763512070071
3798 3683 -0.2365489669484543
3689 3684 0.7504196295052949
3711 3684 -0.2699362163151952
3712 3684 -0.8441114535966063
3695 3685 0.2242805261391034
3706 3685 0.6602069154942474
3714 3685 0.3937803277687917
3694 3686 -0.8225653859065523
3716 3686 0.5477767265846736
3718 3686 -0.7520676290169988
3700 3687 -0.2127445295571764
3715 3687 0.0299386577959533
3723 3687 -0.6208380382702109
3698 3688 -0.8778038880581073
3720 3688 -0.5464949491866817
3743 3688 -0.0196234015930662
3710 3689 0.2311166722617268
3711 3689 -0.1952879421369060
3699 3690 -0.3513595995971557
3702 3690 0.7965025788140507
3727 3690 -0.8082216864528337
3704 3691 -0.1443830683309427
3713 3691 -0.7837458418530839
3729 3691 -0.6259651478621784
3697 3692 0.2937406537064731
3713 3692 0.0185247352519302
3725 3692 0.4032410657063510
3707 3693 0.5398419141209143
3717 3693 -0.6454969939268166
3732 3693 0.9471419415875728
3703 3694 -0.0707113864558855
3718 3694 -0.9072237311929685
3730 3694 0.1031220435193945
3698 3695 0.0764488662373730
3714 3695 0.6228522598956268
3722 3695 0.1462141788995026
3719 3696 -0.5962401196325571
3720 3696 -0.7985168004394665
3753 3696 0.9360332041383099
3705 3697 -0.1669667653431807
3725 3697 -0.6099124118778039
3734 3697 -0.6750999481185339
3722 3698 0.6509292886135440
3743 3698 -0.5631580553605762
3701 3699 -0.6784569841608936
3727 3699 0.3370159001434370
3728 3699 0.0897549363689076
3709 3700 -0.9886471144749290
3723 3700 0.9756462294381543
3733 3700 0.0901821955015718
3706 3701 -0.8583330790124211
3721 3701 -0.4495681630909146
3728 3701 0.3869441816461685
3712 3702 0.4304025391399884
3727 3702 -0.5820184942167425
3736 3702 -0.2281258583330790
3730 3703 -0.2527848139896848
3717 3704 0.7483443708609272
3729 3704 -0.1506698812829982
3742 3704 0.5762199774163030
3734 3705 0.2776268807031466
3764 3705 0.6123538926358836
3770 3705 -0.9636829737235634
3714 3706 -0.7555467390972626
3721 3706 -0.1141697439497055
3724 3706 0.0460524307992798
3715 3707 0.6669209875789666
3732 3707 0.4365062410351879
3739 3707 0.4217352824488052
3776 3708 -0.9870601519821772
3786 3708 -0.6875514999847407
3830 3708 0.0524002807702872
3716 3709 0.3420819727164526
3733 3709 0.6706442457350383
3740 3709 0.9154637287514877
3711 3710 -0.9801629688406018
3726 3710 -0.4010437330240791
3731 3710 -0.0432447279274880
3712 3711 -0.7194738608966338
3731 3711 -0.9299905392620624
3735 3711 0.5627918332468642
3735 3712 0.0702230903042695
3736 3712 0.8829920346690268
3725 3713 -0.4363231299783319
3729 3713 -0.2073122348704489
3749 3713 0.4083071382793664
3722 3714 -0.6951811273537400
3724 3714 -0.5690786461989197
3741 3714 0.4678182317575610
3723 3715 0.5244605853450117
3739 3715 -0.3863948484756005
3748 3715 -0.7130649739066743
3718 3716 0.2908719138157292
3740 3716 -0.3328043458357494
3745 3716 -0.0059511093478195
3732 3717 -0.2145756401257363
3742 3717 0.6765648365733818
3755 3717 0.4644001586962492
3730 3718 0.9468367564928128
3745 3718 -0.7266762291329691
3752 3718 0.0381786553544725
3753 3719 0.3137607959227271
3776 3719 -0.6345103305154576
3806 3719 0.8085879085665455
3743 3720 0.9842524491103855
3753 3720 -0.9567857905819880
3775 3720 -0.1940061647389142
3724 3721 -0.3964049195837275
3728 3721 0.2373424481948301
3751 3721 0.4039124729148229
3741 3722 0.2588274788659322
3743 3722 0.9577013458662680
3768 3722 -0.9111911374248481
3733 3723 -0.0437330240791040
3748 3723 0.7381511886959440
3756 3723 -0.2611468855861080
3741 3724 -0.7994323557237465
3751 3724 0.9149143955809198
3754 3724 0.0002136295663320
3734 3725 -0.5193945127719962
3749 3725 -0.4326609088412122
3763 3725 0.5113986632892848
3731 3726 0.7024445326090274
3746 3726 0.1530503250221260
3750 3726 -0.5485702078310495
3728 3727 0.4402905362102114
3736 3727 0.3166905728324230
3758 3727 0.6732078005310220
3759 3727 -0.8973967711416975
3751 3728 -0.0508133182775353
3758 3728 0.1094088564714499
3742 3729 -0.7842341380046999
3749 3729 -0.9239478743858149
3771 3729 -0.8644367809076204
3752 3730 -0.5002288888210700
3735 3731 -0.6128421887874996
3750 3731 -0.0402539139988403
3757 3731 -0.9863277077547532
3739 3732 0.1102633747367778
3755 3732 -0.6746116519669179
3762 3732 -0.6749778740806299
3740 3733 -0.0867641224402600
3756 3733 0.8199407940916166
3761 3733 -0.2119510483108005
3763 3734 -0.2875759147923216
3764 3734 0.7723319193090610
3791 3734 0.1355327005829035
3736 3735 0.2914822840052491
3757 3735 0.4647053437910091
3760 3735 0.8881191442609944
3759 3736 -0.8097476119266335
3760 3736 -0.6371959593493454
3798 3737 -0.7798394726401563
3820 3737 0.6862086855677969
3861 3737 -0.3154087954344310
3915 3738 -0.0320749534592730
4131 3738 -0.1210669270912809
4380 3738 -0.9273049104281746
3748 3739 0.0808435316019165
3762 3739 0.1777703176976837
3772 3739 0.8541215247047333
3745 3740 -0.0694296090578936
3761 3740 0.3642384105960266
3767 3740 0.1354716635639515
3754 3741 0.4205755790887173
3768 3741 -0.6772362437818538
3755 3742 0.6827295754875331
3771 3742 -0.6135135959959716
3777 3742 0.9740592669454025
3768 3743 -0.0346995452742088
3775 3743 0.1781975768303476
3793 3743 -0.3651539658803064
3786 3744 -0.9871211890011292
3798 3744 0.5321512497329630
3850 3744 -0.6781517990661337
3752 3745 0.9874874111148411
3767 3745 0.6548966948454238
3773 3745 0.3547166356395153
3750 3746 0.0658284249397258
3766 3746 0.7493209631641591
3769 3746 -0.4985198522904142
3883 3747 -0.9216284676656392
4158 3747 -0.8765831476790673
4308 3747 0.8319040498062074
4711 3747 0.6630756553849910
3756 3748 -0.1615955076754051
3772 3748 0.6915189062166205
3779 3748 0.8375194555497909
3763 3749 -0.2444837794122136
3771 3749 -0.4819177831354716
3783 3749 -0.0743125705740532
3757 3750 0.8817102572710349
3769 3750 0.6834009826960050
3774 3750 0.6512955107272560
3754 3751 -0.5167088839381084
3758 3751 -0.7835627307962278
3778 3751 -0.9806512649922178
3789 3751 0.5320291756950590
3773 3752 0.4440137943662832
3775 3753 0.7170934171575061
3806 3753 0.7953428754539629
3819 3753 0.0937223426007874
3768 3754 -0.0774864955595569
3778 3754 -0.7058015686513870
3762 3755 -0.4856410412915433
3777 3755 0.1204565569017608
3784 3755 0.6850489822077090
3761 3756 0.2945951719718010
3779 3756 -0.8003479110080264
3785 3756 -0.6475722525711844
3760 3757 -0.9177831354716636
3774 3757 -0.0473952452162236
3782 3757 0.2899563585314493
3759 3758 0.0488601336710714
3789 3758 0.6108890041810358
3792 3758 -0.0452589495529039
3760 3759 0.1952879421369060
3787 3759 -0.4298532059694204
3792 3759 -0.5830561235389264
3782 3760 0.1803338724936674
3787 3760 -0.6742454298532059
3767 3761 -0.4575029755546739
3785 3761 -0.9471419415875728
3790 3761 -0.3201086458937346
3772 3762 0.4053773613696707
3784 3762 -0.8336741233558154
3794 3762 0.8010193182164984
3783 3763 0.9553819391460920
3791 3763 -0.1171605578783532
3811 3763 0.2325205236976227
3770 3764 0.8759727774895474
3791 3764 -0.3978698080385754
3837 3764 -0.7460249641407514
4437 3765 0.4073915829950865
4575 3765 0.8182317575609608
4594 3765 0.3782158879360331
3769 3766 -0.8947721793267617
3781 3766 0.3506271553697318
3788 3766 0.3923154393139439
3773 3767 -0.2391735587633900
3790 3767 -0.3068636127811518
3799 3767 -0.7731254005554369
3778 3768 -0.6995147556993316
3793 3768 0.0542924283577990
3804 3768 0.8716391491439559
3774 3769 0.1748405407879878
3788 3769 -0.9739982299264504
3796 3769 -0.8891567735831782
3780 3770 -0.8212836085085604
3837 3770 0.2959379863887448
3847 3770 -0.8826868495742668
3777 3771 0.7272865993224891
3783 3771 0.8969084749900815
3795 3771 0.7246009704886014
3813 3771 -0.7734305856501968
3779 3772 -0.2199468977935117
3794 3772 0.8975188451796015
3801 3772 -0.6564226203192236
3799 3773 -0.7856379894405957
3782 3774 -0.8388012329477829
3796 3774 0.0837122714926604
3803 3774 -0.2939848017822809
3793 3775 0.6332895901364177
3819 3775 0.5772576067384869
3832 3775 -0.7567064424573504
3806 3776 0.7271034882656331
3830 3776 -0.0970183416241951
3856 3776 0.2739646595660268
3784 3777 0.1239967040009766
3795 3777 0.7074495681630910
3802 3777 0.4891201513718071
3789 3778 -0.2501602221747490
3804 3778 -0.4560380870998261
3817 3778 0.2519913327433088
3785 3779 0.3989074373607593
3801 3779 0.5196996978667563
3808 3779 -0.6495254371776482
3807 3780 -0.3555101168858913
3847 3780 0.3049714651936399
3877 3780 0.9920651875362407
3788 3781 0.0377513962218086
3800 3781 -0.7571947386089664
3809 3781 0.6114993743705557
3787 3782 0.5218359935300760
3803 3782 0.8384960478530228
3810 3782 0.4554887539292580
3811 3783 0.7734916226691488
3813 3783 0.7020783104953154
3831 3783 0.0997650074770349
3794 3784 -0.1368755149998474
3802 3784 -0.8171330912198248
3815 3784 0.9556260872219000
3790 3785 0.7571947386089664
3808 3785 0.0468459120456557
3812 3785 0.9334086123233740
3830 3786 0.4905240028077029
3850 3786 0.7187414166692099
3903 3786 -0.3140049439985351
3792 3787 -0.2231818597979675
3810 3787 -0.3187047944578387
3818 3787 0.9714346751304666
3796 3788 0.4883266701254312
3809 3788 -0.4166081728568377
3814 3788 0.9379863887447737
3792 3789 -0.7766655476546526
3817 3789 -0.4858851893673513
3827 3789 -0.3820001831110569
3799 3790 0.1266212958159123
3812 3790 -0.1069673757133701
3821 3790 0.4581743827631459
3811 3791 0.9462263863032929
3837 3791 0.6026490066225165
3848 3791 0.2590716269417401
3818 3792 0.4503006073183387
3827 3792 0.2807397686696982
3804 3793 0.9199804681539354
3832 3793 -0.4174016541032136
3843 3793 -0.0612506485183264
3801 3794 0.5826899014252145
3815 3794 0.2784813989684745
3823 3794 -0.9854121524704733
3802 3795 0.2176885280922880
3813 3795 0.7285073397015289
3822 3795 0.7726371044038209
3803 3796 -0.8989837336344493
3814 3796 0.1616565446943572
3824 3796 -0.4440137943662832
3805 3797 0.5027314065981017
3836 3797 0.6982940153202917
3974 3797 0.7300943021942807
4020 3797 0.6024658955656605
3850 3798 0.6123538926358836
3861 3798 0.1109347819452497
3916 3798 0.8030945768608662
3821 3799 0.8455153050325022
3809 3800 0.3139439069795831
3816 3800 0.2649311807611316
3825 3800 0.9123508407849361
3808 3801 -0.2388683736686300
3823 3801 0.9654530472731713
3829 3801 0.7282631916257210
3815 3802 0.4289376506851406
3822 3802 0.0107730338450269
3838 3802 -0.7403485213782159
3810 3803 0.3920712912381359
3824 3803 0.7705008087405012
3828 3803 0.0690023499252297
3817 3804 0.5900753807184058
3843 3804 -0.3760185552537614
3849 3804 0.1905880916776024
3872 3805 0.1059297463911864
3972 3805 0.6543473616748559
3974 3805 -0.2930692464980010
3819 3806 0.7123935666982024
3856 3806 -0.5644398327585680
3864 3806 0.3588671529282510
3872 3807 0.3755302591021454
3877 3807 0.7697683645130773
3914 3807 0.8434400463881344
3812 3808 0.0869472334971160
3829 3808 -0.7374187444685202
3834 3808 0.1175267799920652
3814 3809 0.1048921170690023
3825 3809 0.3918271431623279
3835 3809 0.0683919797357098
3818 3810 0.5740836817529831
3828 3810 0.0083315530869472
3839 3810 -0.8209784234138005
3831 3811 -0.7351603747672963
3848 3811 -0.8420972319711906
3862 3811 -0.8060243537705618
3821 3812 0.4388866847743156
3834 3812 0.1476790673543504
3846 3812 -0.8178044984282967
3822 3813 -0.8778038880581073
3831 3813 0.5924558244575335
3841 3813 0.0485549485763115
3824 3814 -0.1320535905026399
3835 3814 -0.5175023651844843
3845 3814 -0.4868007446516313
3823 3815 -0.4803308206427198
3838 3815 0.0395214697714164
3844 3815 -0.6427503280739768
3825 3816 0.2870876186407056
3833 3816 -0.6957914975432600
3842 3816 0.4648884548478653
3827 3817 0.4512771996215705
3849 3817 0.7734305856501968
3860 3817 -0.0965910824915311
3827 3818 0.4028138065736870
3839 3818 -0.2996002075258645
3854 3818 -0.9712515640736107
3832 3819 -0.4452345347453230
3864 3819 0.9192480239265115
3870 3819 -0.4282662434766686
3840 3820 -0.3430585650196845
3861 3820 -0.5677968688009278
3930 3820 0.5361796929837948
3846 3821 -0.6326792199468978
3838 3822 -0.8530228583635975
3841 3822 -0.1180761131626331
3859 3822 -0.2251350444044313
3829 3823 -0.1551255836664938
3844 3823 -0.7376018555253762
3852 3823 0.5053559984130376
3828 3824 0.1561021759697256
3845 3824 0.4665974913785211
3851 3824 0.5428937650685139
3835 3825 -0.0972014526810511
3842 3825 0.2197027497177038
3855 3825 -0.4098330637531663
3989 3826 0.9827875606555376
4158 3826 -0.1106295968504898
4425 3826 0.1266823328348643
4434 3826 0.9134495071260720
3854 3827 -0.0531327249977112
3860 3827 -0.0036317026276437
3839 3828 -0.5945921201208533
3851 3828 0.4849696340830714
3858 3828 0.3878597369304484
3834 3829 -0.9300515762810144
3852 3829 -0.5949583422345652
3857 3829 -0.4057435834833827
3856 3830 -0.5735953856013672
3903 3830 -0.2197027497177038
3921 3830 -0.9816278572954497
3841 3831 -0.1468855861079745
3862 3831 0.3574022644734032
3868 3831 0.8533280434583574
3843 3832 -0.7632374034852139
3870 3832 -0.2195196386608478
3876 3832 0.1441389202551346
3842 3833 0.8373363444929349
3853 3833 -0.9003875850703451
3863 3833 -0.7956480605487228
3846 3834 -0.5362407300027467
3857 3834 0.2176885280922880
3867 3834 0.6009399700918607
3845 3835 0.7924130985442670
3855 3835 -0.6346324045533616
3865 3835 -0.3083895382549516
3935 3836 -0.8847621082186345
4020 3836 -0.9766228217413861
4111 3836 -0.3953062532425916
3847 3837 -0.5848872341074862
3848 3837 0.9056978057191687
3889 3837 -0.0863979003265480
3891 3837 0.7161168248542742
3844 3838 -0.9641712698751793
3859 3838 0.2765892513809625
3866 3838 -0.1913815729239784
3854 3839 0.8862269966734824
3858 3839 -0.6771141697439498
3873 3839 -0.0667439802240058
3878 3840 0.5548570207831049
3930 3840 -0.3094882045960875
3987 3840 -0.7927182836390271
3859 3841 -0.8891567735831782
3868 3841 -0.6384166997283853
3881 3841 -0.2445448164311655
3855 3842 -0.9550767540513321
3863 3842 -0.9642933439130833
3875 3842 0.6680806909390546
3849 3843 0.4092837305825983
3876 3843 -0.0853602710043642
3888 3843 0.2811059907834101
3852 3844 0.3258461256752221
3866 3844 0.3833429975280007
3874 3844 -0.2362437818536942
3851 3845 -0.4201483199560534
3865 3845 -0.5893429364909818
3871 3845 -0.3731498153630177
3867 3846 0.2143925290688802
3877 3847 0.6567278054139836
3891 3847 -0.0240791039765618
3941 3847 -0.7025055696279794
3862 3848 0.8416699728385266
3889 3848 0.6426892910550248
3895 3848 0.0593585009308146
3860 3849 -0.0101626636555071
3888 3849 0.7376018555253760
3906 3849 0.6337168492690817
3903 3850 0.2567522202215644
3916 3850 -0.7348551896725364
3981 3850 0.1724600970488601
3858 3851 -0.0433057649464400
3871 3851 -0.8257393108920561
3879 3851 0.5442365794854580
3857 3852 0.1662953581347086
3874 3852 0.7049470503860591
3880 3852 0.0722983489486373
3863 3853 0.4257637256996367
3869 3853 0.7831354716635639
3882 3853 0.1053804132206182
3860 3854 0.0130924405652029
3873 3854 0.4935758537553026
3899 3854 -0.0398266548661763
3865 3855 -0.7193517868587298
3875 3855 -0.1751457258827479
3884 3855 0.6738792077394939
3864 3856 -0.3149815363017671
3918 3856 -0.0317697683645131
3921 3856 0.1950437940610981
3867 3857 0.2067018646809289
3880 3857 -0.6671040986358227
3890 3857 -0.2414319284646138
3873 3858 0.2041993469038972
3879 3858 -0.7079378643147068
3886 3858 0.9760734885708182
3866 3859 -0.5837885677663504
3881 3859 -0.3850520340586566
3887 3859 -0.5243995483260597
3899 3860 0.4790490432447279
3906 3860 0.8442945646534623
3916 3861 -0.7737357707449568
3930 3861 -0.1662953581347087
4003 3861 -0.8085879085665456
3868 3862 -0.7429731131931516
3895 3862 0.6074709311197242
3897 3862 -0.9769280068361461
3875 3863 0.0503860591448713
3882 3863 0.1214331492049929
3893 3863 -0.4772179326761681
3870 3864 0.2555314798425246
3918 3864 0.9061250648518326
3926 3864 0.4306466872157964
3871 3865 0.3608813745536668
3884 3865 -0.7392498550370800
3892 3865 0.8825647755363628
3874 3866 0.8723715933713798
3887 3866 -0.1202124088259530
3894 3866 0.3008209479049044
3890 3867 0.5855586413159581
3881 3868 0.4541459395123142
3897 3868 -0.4186223944822535
3902 3868 0.2967314676351207
3882 3869 -0.0285348063600573
3885 3869 0.1479842524491104
3896 3869 -0.9730216376232185
3876 3870 0.1319925534836879
3926 3870 0.6879177220984527
3936 3870 -0.8825647755363628
3879 3871 -0.5930661946470535
3892 3871 -0.8066347239600817
3898 3871 0.7001861629078037
3914 3872 0.0885952330088198
3972 3872 -0.3232215338602863
3991 3872 0.2134769737846003
3886 3873 0.0151066621906186
3899 3873 -0.5714590899380474
3908 3873 0.5717032380138554
3880 3874 0.4753868221076083
3894 3874 -0.6848658711508531
3900 3874 0.4936368907742545
3884 3875 0.8132267220068972
3893 3875 0.4445020905178991
3905 3875 0.3148594622638630
3888 3876 -0.1911984618671224
3936 3876 0.8194524979400006
3914 3877 -0.1127048554948576
3941 3877 -0.3470259712515641
3956 3877 0.6425061799981688
3883 3878 0.2312997833185828
3987 3878 0.5419171727652821
4098 3878 -0.8682210760826441
4162 3878 -0.4620197149571215
3886 3879 0.5683462019714958
3898 3879 -0.5985595263527329
3904 3879 0.1169164098025453
3890 3880 0.3644825586718345
3900 3880 -0.6743675038911099
3910 3880 -0.3269447920163580
3887 3881 0.9093600268562883
3902 3881 -0.5500350962858974
3907 3881 0.8246406445509202
3893 3882 -0.5242164372692037
3896 3882 0.9033783989989930
3909 3882 0.3592944120609149
4162 3883 0.1301004058961761
4308 3883 -0.6615497299111912
4711 3883 0.3411664174321727
3892 3884 -0.1219824823755608
3905 3884 -0.6533707693716240
3911 3884 0.5617542039246803
3896 3885 -0.5214087343974121
3901 3885 -0.2326425977355266
3912 3885 0.6061891537217323
3904 3886 -0.4951628162480545
3908 3886 -0.0273140659810175
3894 3887 -0.1502426221503341
3907 3887 -0.9409161656544694
3913 3887 -0.1382183294167912
3906 3888 0.3051545762504959
3936 3888 0.9900509659108250
3966 3888 0.1825922421948911
3891 3889 -0.0124820703756828
3895 3889 0.0527665028839992
3927 3889 -0.4672078615680411
3940 3889 0.7169713431196021
3910 3890 -0.6623432111575671
3940 3891 0.8185369426557207
3941 3891 -0.2400280770287179
3970 3891 -0.4559160130619221
3898 3892 -0.9161961729789116
3911 3892 0.6351207007049775
3920 3892 -0.0700399792474136
3905 3893 -0.1804559465315714
3909 3893 0.9677724539933470
3922 3893 -0.3464156010620442
3900 3894 0.4615314188055055
3913 3894 0.6707663197729423
3919 3894 -0.5446028015991700
3897 3895 -0.0701010162663656
3923 3895 -0.1753898739585559
3927 3895 -0.2252571184423353
3909 3896 -0.7448042237617114
3912 3896 -0.8787194433423872
3925 3896 0.7008575701162756
3902 3897 -0.8733481856746117
3923 3897 -0.7387615588854640
3928 3897 0.9055757316812647
3904 3898 -0.0240791039765618
3920 3898 -0.6872463148899808
3924 3898 0.9855952635273293
3906 3899 -0.0647297585985901
3908 3899 -0.8735923337504197
3939 3899 0.5993530075991089
3947 3899 0.5405133213293862
3910 3900 0.1399884029663991
3919 3900 0.5641346476638081
3931 3900 0.1506698812829981
3912 3901 0.2347788933988464
3917 3901 0.1881466109195227
3929 3901 0.4991912594988861
3907 3902 -0.3113803521835994
3928 3902 0.8452711569566942
3932 3902 0.9221778008362072
3921 3903 -0.1139866328928495
3981 3903 0.9059419537949767
4002 3903 0.6268196661275063
3908 3904 0.5782952360606708
3924 3904 0.0130314035462509
3934 3904 0.9457380901516770
3911 3905 0.1232642597735527
3922 3905 0.6041138950773643
3933 3905 0.3000885036774803
3947 3906 -0.7393719290749841
3966 3906 0.8414868617816706
3913 3907 -0.1136204107791375
3932 3907 0.8649861140781885
3938 3907 0.1623889889217811
3934 3908 0.8510086367381817
3939 3908 0.2018189031647695
3922 3909 -0.5779900509659108
3925 3909 0.3759575182348094
3942 3909 -0.6276131473738822
3931 3910 0.7020783104953154
3920 3911 -0.9244972075563830
3933 3911 -0.0901211584826197
3945 3911 -0.5838496047853023
3925 3912 0.2474135563219093
3929 3912 0.5698721274452956
3944 3912 -0.4443800164799951
3919 3913 0.5347758415478987
3938 3913 -0.5999633777886288
3943 3913 -0.4409619434186834
3956 3914 -0.6719260231330302
3991 3914 0.7507858516190069
4001 3914 0.8903164769432661
4010 3915 0.4591509750663778
4380 3915 -0.8396557512131108
4492 3915 -0.2770165105136265
3981 3916 0.3674123355815302
4003 3916 -0.5560777611621448
4089 3916 0.1645252845851009
3929 3917 0.2137211218604083
3937 3917 0.2489394817957091
3946 3917 0.1487166966765343
3921 3918 -0.2282479323709830
3926 3918 -0.0812707907345805
3990 3918 0.4794152653584398
4008 3918 0.6430555131687368
3931 3919 -0.9365825373088779
3943 3919 0.7238074892422255
3951 3919 -0.9877315591906491
3924 3920 -0.7643971068453017
3945 3920 -0.3935361796929838
3953 3920 -0.5514389477217932
3990 3921 -0.1733756523331400
4002 3921 -0.3260902737510299
3933 3922 0.1048921170690023
3942 3922 -0.8576616718039491
3949 3922 -0.7084871974852749
3927 3923 -0.6995147556993316
3928 3923 0.1803338724936674
3948 3923 0.9920041505172887
3955 3923 0.6911526841029083
3934 3924 0.7292397839289528
3953 3924 -0.4061708426160466
3958 3924 -0.0937223426007874
3942 3925 -0.2784813989684743
3944 3925 0.6030762657551805
3959 3925 0.2220221564378795
3936 3926 -0.1611682485427411
4008 3926 0.7733695486312449
4012 3926 -0.0030823694570757
3940 3927 -0.9009979552598651
3955 3927 -0.0892666402172918
3969 3927 0.8121890926847133
3932 3928 0.0271919919431134
3948 3928 -0.1622669148838771
3952 3928 -0.6024658955656605
3944 3929 0.6683858760338146
3946 3929 -0.7692800683614612
3960 3929 0.7423627430036317
3987 3930 0.6417126987517929
4003 3930 0.5504623554185613
4049 3930 0.2764061403241065
3951 3931 0.9248023926511428
3938 3932 -0.0471510971404157
3952 3932 -0.4073305459761345
3957 3932 0.5703604235969115
3945 3933 0.7376018555253760
3949 3933 -0.4406567583239235
3963 3933 0.2515030365916928
3939 3934 0.3191320535905027
3958 3934 -0.1642811365092929
3964 3934 0.6732688375499740
4111 3935 -0.6393322550126652
4131 3935 0.6116824854274117
4298 3935 -0.8203070162053285
3966 3936 0.7303994872890407
4012 3936 0.6605121005890073
3946 3937 -0.9161961729789116
3950 3937 0.2926419873653370
3962 3937 0.8693197424237800
3943 3938 0.6111331522568437
3957 3938 -0.2728049562059389
3961 3938 0.0838343455305643
3947 3939 0.7109286782433546
3964 3939 0.3041169469283120
3985 3939 0.4047669911801508
3969 3940 0.5510116885891294
3970 3940 0.5012054811243019
3996 3940 -0.7161168248542742
3956 3941 0.6365245521408733
3970 3941 -0.3257240516373180
4011 3941 -0.3204138309884945
4016 3941 0.0920743430890836
3949 3942 -0.7831965086825159
3959 3942 0.8137760551774651
3968 3942 -0.0635700552385021
3951 3943 -0.6534928434095280
3961 3943 0.2263557847834712
3971 3943 0.9237037263100070
3959 3944 -0.1799676503799554
3960 3944 0.1686758018738366
3975 3944 -0.9989623706778161
3953 3945 0.8955046235541857
3963 3945 0.9580675679799799
3977 3945 -0.2295297097689749
3960 3946 0.6209601123081148
3962 3946 0.3420819727164526
3976 3946 0.9539170506912442
3966 3947 -0.9856563005462813
3985 3947 0.4801477095858637
4018 3947 0.1363261818292794
3952 3948 -0.9780266731772820
3955 3948 -0.2418591875972778
3965 3948 -0.4976042970061342
3978 3948 -0.9841914120914335
3963 3949 -0.5765861995300150
3968 3949 0.7975402081362346
3982 3949 -0.4368114261299478
3962 3950 -0.4337595751823481
3967 3950 0.7651905880916776
3979 3950 0.2190923795281838
3971 3951 -0.3188879055146947
3957 3952 -0.1031830805383465
3965 3952 0.2246467482528154
3973 3952 0.9756462294381543
3958 3953 0.5417340617084261
3977 3953 0.3188268684957427
3986 3953 0.7631763664662619
4329 3954 -0.5033417767876217
4535 3954 -0.0842005676442763
4557 3954 -0.6585589159825433
3969 3955 0.3897518845179602
3978 3955 0.1470686971648305
3994 3955 0.5345316934720907
4001 3956 0.2955717642750328
4011 3956 -0.4617755668813135
4036 3956 -0.6551408429212318
3961 3957 0.9841303750724815
3973 3957 0.8997772148808252
3980 3957 -0.3796807763908810
3964 3958 0.1528061769463180
3986 3958 -0.8170720542008728
3993 3958 -0.9202246162297434
3968 3959 0.8168889431440169
3975 3959 -0.8456984160893581
3984 3959 -0.9973143711661122
3975 3960 -0.6455580309457687
3976 3960 0.1697744682149724
3997 3960 0.4275948362681967
3971 3961 -0.4033021027253029
3980 3961 -0.8992278817102572
3995 3961 0.0376293221839046
3976 3962 0.4294259468367565
3979 3962 -0.0022278511917478
3998 3962 -0.9900509659108249
3977 3963 -0.0235297708059938
3982 3963 0.6019165623950926
4004 3963 0.5485091708120975
3985 3964 -0.9521469771416364
3993 3964 0.1092867824335459
3973 3965 -0.4855189672536393
3978 3965 -0.2748802148503067
3988 3965 0.2315439313943908
4012 3966 -0.9537339396343882
4018 3966 -0.6467787713248085
4054 3966 -0.0802331614123967
3979 3967 -0.4654988250373852
3983 3967 0.4182561723685416
3999 3967 0.5706656086916715
3982 3968 0.7407757805108799
3984 3968 0.2341685232093265
4005 3968 -0.9143650624103519
3994 3969 -0.4921720023194067
3996 3969 -0.6039307840205084
4015 3969 -0.9879146702475051
3996 3970 -0.9135715811639760
4016 3970 0.8021179845576343
4027 3970 0.7208777123325296
3995 3971 0.1217993713187049
3974 3972 0.3841364787743766
3991 3972 -0.6078981902523881
4065 3972 0.4120303964354382
4080 3972 -0.0655842768639180
3980 3973 0.4793542283394878
3988 3973 -0.0670491653187658
4000 3973 0.0323801385540330
4020 3974 0.1764885402996919
4080 3974 -0.0526444288460951
4133 3974 0.4343699453718681
3984 3975 -0.6531266212958159
3997 3975 -0.8286080507827998
4007 3975 -0.0364085818048646
3997 3976 -0.0664387951292459
3998 3976 0.5533310953093051
4013 3976 -0.6028321176793725
3986 3977 0.8800622577593311
4004 3977 -0.9838251899777215
4022 3977 -0.0300607318338573
3988 3978 0.6733909115878780
3994 3978 -0.0851161229285562
4009 3978 0.9971922971282083
3998 3979 -0.2571184423352764
3999 3979 -0.7109897152623066
4017 3979 -0.9817499313333536
3995 3980 0.5741447187719351
4000 3980 -0.8645588549455244
4014 3980 0.3849909970397045
4002 3981 0.9757683034760583
4089 3981 -0.2334971160008545
4092 3981 -0.0380565813165685
4004 3982 -0.0977507858516190
4005 3982 0.8129825739310892
4024 3982 -0.0486770226142155
3999 3983 -0.2716452528458511
4006 3983 -0.5906247138889736
4019 3983 0.5634022034363841
4005 3984 -0.1896725363933226
4007 3984 -0.9568468276009400
4023 3984 0.1213721121860409
3993 3985 0.4620197149571215
4018 3985 -0.0011902218695639
4030 3985 0.8594317453535569
3993 3986 -0.5778069399090549
4022 3986 0.6273689992980742
4028 3986 0.3500778221991638
4049 3987 0.1117282631916257
4098 3987 0.2041383098849452
4109 3987 0.2937406537064731
4000 3988 0.4274117252113407
4009 3988 -0.6895657216101565
4021 3988 0.3356730857264931
4032 3989 0.6577043977172154
4425 3989 -0.7638477736747338
4459 3989 0.6550798059022798
4002 3990 0.5707876827295755
4008 3990 0.3992736594744712
4062 3990 0.9089327677236243
4067 3990 0.2298348948637348
4001 3991 0.2125614185003204
4065 3991 -0.0576494644001587
4070 3991 0.1748405407879878
4097 3992 0.8436841944639424
4446 3992 0.8428296761986145
4506 3992 -0.4846034119693594
4028 3993 0.4280220954008607
4030 3993 -0.9224829859309671
4009 3994 -0.5695059053315836
4015 3994 -0.9246803186132390
4029 3994 0.2046266060365611
4014 3995 -0.8989837336344493
4015 3996 -0.8677938169499801
4027 3996 -0.8424024170659505
4039 3996 0.8837244788964507
4007 3997 0.8209173863948485
4013 3997 -0.9042939542832729
4026 3997 0.7142857142857142
4013 3998 -0.5772576067384869
4017 3998 0.9243751335184789
4031 3998 -0.4193548387096774
4017 3999 -0.9971922971282082
4019 3999 0.9408551286355173
4033 3999 0.3793755912961212
4014 4000 -0.2925809503463851
4021 4000 -0.4116031373027741
4034 4000 0.9620960112308115
4036 4001 0.9544053468428602
4070 4001 0.1482894375438704
4076 4001 -0.4780724509414960
4062 4002 0.1316873683889279
4092 4002 0.3202307199316385
4049 4003 0.0715659047212134
4089 4003 -0.2438123722037415
4145 4003 -0.7828302865688039
4022 4004 0.2961821344645528
4024 4004 0.6529435102389600
4043 4004 -0.1369975890377514
4023 4005 -0.7925962096011231
4024 4005 -0.1962645344401379
4037 4005 0.4650715659047213
4019 4006 -0.8865932187871944
4025 4006 0.3213293862727744
4035 4006 -0.9108249153111362
4023 4007 -0.9408551286355175
4026 4007 0.9839472640156255
4038 4007 0.7399212622455520
4012 4008 0.7786797692800684
4067 4008 0.0499588000122073
4084 4008 -0.8492996002075259
4021 4009 0.8728598895229958
4029 4009 0.3274941251869259
4041 4009 0.0173650318918424
4097 4010 0.0350657673879207
4492 4010 -0.0268868068483535
4509 4010 -0.5729850154118472
4016 4011 0.5372173223059786
4036 4011 -0.0384838404492325
4051 4011 0.9116794335764642
4064 4011 0.9303567613757744
4054 4012 -0.3472090823084201
4084 4012 -0.0076601458784753
4112 4012 -0.0754112369151890
4026 4013 0.8602862636188848
4031 4013 0.1010467848750267
4042 4013 0.4999237037263100
4034 4014 -0.8541215247047335
4029 4015 0.0622272408215583
4039 4015 0.6046021912289803
4046 4015 0.5399639881588183
4027 4016 0.7372966704306161
4051 4016 -0.9362773522141179
4055 4016 -0.4571977904599139
4031 4017 0.0882900479140598
4033 4017 0.4285714285714286
4044 4017 0.7034821619312113
4030 4018 -0.6852320932645650
4054 4018 0.2030396435438093
4079 4018 -0.7192907498397778
4033 4019 0.0925626392406995
4035 4019 0.7051911984618671
4045 4019 -0.8246406445509201
4111 4020 -0.5160985137485885
4133 4020 0.4701986754966887
4225 4020 -0.4324167607654043
4034 4021 -0.2692037720877712
4041 4021 -0.9969481490524003
4050 4021 0.5165868099002044
4028 4022 -0.8640095217749565
4043 4022 -0.6561174352244636
4059 4022 0.8842127750480666
4037 4023 -0.3150425733207191
4038 4023 0.2782982879116185
4048 4023 0.7289345988341929
4037 4024 0.0323191015350810
4043 4024 -0.8839075899533066
4056 4024 -0.9972533341471602
4035 4025 0.5684072389904478
4040 4025 -0.7241126743369855
4047 4025 0.6969512009033478
4038 4026 -0.4677571947386090
4042 4026 -0.4573198644978179
4052 4026 -0.4722128971221046
4039 4027 -0.1732535782952360
4055 4027 0.2561418500320445
4060 4027 -0.2769554734946745
4030 4028 -0.1431623279519029
4059 4028 0.4521317178868984
4081 4028 0.8742027039399396
4041 4029 0.3898129215369122
4046 4029 0.2821436201055940
4058 4029 -0.0650349436933501
4079 4030 0.0444044312875760
4081 4030 0.3395794549394207
4042 4031 -0.8977629932554094
4044 4031 0.3138828699606311
4057 4031 -0.1530503250221259
4166 4032 -0.2571794793542284
4459 4032 -0.4275948362681966
4481 4032 -0.4765465254676962
4044 4033 0.3774834437086092
4045 4033 -0.3851130710776086
4061 4033 -0.2585222937711722
4050 4034 -0.8671224097415082
4045 4035 0.7809991760002442
4047 4035 -0.0374462111270486
4063 4035 0.2619403668324840
4064 4036 0.1663563951536606
4076 4036 0.0408032471694082
4095 4036 0.6691793572801905
4048 4037 -0.0152897732474746
4056 4037 -0.4319895016327403
4069 4037 -0.1670888393810847
4048 4038 0.1803949095126194
4052 4038 0.1518295846430859
4066 4038 0.8745078890346996
4046 4039 0.7596972563859981
4060 4039 0.0533158360545671
4072 4039 0.9993285927915281
4047 4040 -0.3439741203039643
4053 4040 0.2749412518692587
4068 4040 0.4313180944242683
4050 4041 -0.4175847651600696
4058 4041 -0.7092806787316508
4074 4041 -0.3870662556840724
4052 4042 0.5070039979247414
4057 4042 0.6365245521408733
4073 4042 -0.3676564836573382
4056 4043 0.0337839899899288
4059 4043 -0.9634388256477554
4088 4043 -0.7150181585131382
4057 4044 0.1356547746208074
4061 4044 -0.3025299844355601
4075 4044 0.9665517136143071
4061 4045 -0.5920896023438216
4063 4045 0.0011291848506119
4078 4045 -0.5201879940183721
4058 4046 -0.7631763664662617
4072 4046 0.4831385235145116
4083 4046 0.9020966216010009
4063 4047 -0.9581286049989318
4068 4047 -0.1776482436597796
4082 4047 0.7122714926602984
4066 4048 0.8556474501785334
4069 4048 -0.5339823603015228
4077 4048 -0.9254127628406629
4109 4049 -0.7554246650593586
4145 4049 0.8012024292733544
4199 4049 -0.2292245246742149
4074 4050 -0.5727408673360392
4055 4051 -0.6885280922879726
4064 4051 0.4484694967497787
4086 4051 -0.3828547013763848
4090 4051 0.5272682882168034
4066 4052 -0.9174779503769036
4073 4052 0.9573351237525560
4085 4052 -0.4811853389080477
4068 4053 -0.1459700308236945
4071 4053 0.0578936124759666
4087 4053 -0.9878536332285531
4079 4054 0.8687704092532120
4112 4054 -0.1102023377178258
4140 4054 -0.1926633503219702
4060 4055 -0.1463972899563585
4086 4055 -0.9053926206244087
4091 4055 -0.0969573046052431
4069 4056 0.8703573717459638
4088 4056 -0.1708120975371563
4100 4056 0.2561418500320445
4073 4057 -0.5923947874385815
4075 4057 0.6280404065065461
4096 4057 0.0269478438673054
4074 4058 0.3951231421857357
4083 4058 -0.6396374401074252
4102 4058 -0.0390942106387524
4081 4059 -0.4476149784844509
4088 4059 -0.0464186529129917
4119 4059 0.1594592120120852
4072 4060 -0.4962004455702383
4091 4060 0.0136417737357708
4103 4060 0.5693227942747277
4075 4061 0.5056611835077975
4078 4061 -0.6885891293069246
4093 4061 -0.2247688222907194
4067 4062 0.5634632404553361
4092 4062 0.1899777214880825
4130 4062 0.7459028901028473
4078 4063 -0.4554887539292581
4082 4063 0.4324167607654041
4101 4063 0.8693807794427320
4090 4064 0.4000671407208471
4095 4064 -0.1478011413922544
4105 4064 0.6550798059022798
4070 4065 -0.1071504867702261
4080 4065 0.8685262611774041
4138 4065 -0.0096743675038911
4169 4065 -0.8699911496322520
4077 4066 -0.7585985900448622
4085 4066 0.1779534287545397
4099 4066 0.9692373424481948
4084 4067 0.5536973174230171
4130 4067 0.6434217352824487
4156 4067 0.6912137211218603
4082 4068 0.0570390942106387
4087 4068 -0.9478133487960448
4106 4068 0.9284035767693106
4077 4069 -0.7043366801965392
4100 4069 -0.5364848780785547
4104 4069 0.3801080355235451
4076 4070 0.6814477980895413
4138 4070 -0.3102206488235114
4143 4070 0.7310708944975128
4087 4071 0.9974364452040163
4094 4071 0.2614520706808678
4108 4071 0.5796990874965666
4083 4072 -0.6054567094943083
4103 4072 0.3389690847499007
4107 4072 0.2441175572985015
4085 4073 0.5981933042390211
4096 4073 -0.5253761406292916
4110 4073 -0.4134952848902860
4102 4074 0.3543504135258033
4093 4075 -0.2407605212561419
4096 4075 0.3639332255012666
4113 4075 -0.7416302987762078
4095 4076 -0.0514236884670553
4136 4076 0.2599871822260200
4143 4076 -0.3286538285470137
4099 4077 0.9271217993713188
4104 4077 0.1110568559831537
4093 4078 0.4426709799493393
4101 4078 0.5856807153538621
4716 4078 -0.6210821863460189
4081 4079 0.4251533555101168
4140 4079 0.7298501541184728
4144 4079 -0.6790673543504135
4133 4080 0.5273293252357554
4169 4080 0.4837488937040315
4229 4080 -0.6560563982055116
4119 4081 -0.7932676168095950
4144 4081 -0.6075930051576282
4167 4081 -0.8002868739890744
4101 4082 0.6252937406537065
4106 4082 0.9851680043946653
4116 4082 -0.5400250251777703
4102 4083 -0.0196844386120182
4107 4083 -0.2406384472182379
4121 4083 -0.1226538895840327
4112 4084 -0.2688375499740593
4156 4084 0.8268379772331920
4187 4084 0.7280190435499130
4099 4085 0.9826654866176336
4110 4085 0.7767265846736044
4118 4085 -0.5773796807763909
4090 4086 -0.7058626056703390
4091 4086 -0.4288155766472366
4115 4086 0.1070894497512742
4117 4086 0.2723166600543230
4106 4087 -0.1642811365092929
4108 4087 -0.1653798028504287
4123 4087 0.1719718008972442
4100 4088 -0.0461745048371838
4119 4088 -0.1612292855616931
4127 4088 0.6556291390728477
4092 4089 -0.6993316446424757
4145 4089 -0.4537186803796502
4208 4089 0.8635212256233407
4241 4089 -0.0401928769798883
4105 4090 0.8970915860469375
4115 4090 0.2965483565782647
4120 4090 -0.2042603839228492
4103 4091 0.2121951963866084
4117 4091 -0.7999206518753624
4122 4091 -0.4141666920987579
4130 4092 -0.8045594653157140
4194 4092 0.6202276680806909
4208 4092 0.9242530594805749
4113 4093 -0.7394940031128880
4124 4093 0.5560777611621448
4716 4093 0.6069215979491562
4108 4094 -0.9097262489700003
4114 4094 -0.6121707815790276
4129 4094 -0.7139194921720023
4105 4095 0.1158177434614094
4128 4095 0.3608203375347148
4136 4095 -0.4994964445936461
4139 4095 -0.7741019928586688
4110 4096 -0.6895657216101565
4113 4096 0.1918088320566425
4134 4096 0.3918881801812799
4506 4097 -0.4877162999359111
4509 4097 -0.7694021423993652
4109 4098 -0.8868984038819544
4162 4098 0.5240943632312998
4248 4098 -0.3969542527542955
4328 4098 -0.0314035462508011
4104 4099 0.4503006073183387
4118 4099 0.1128269295327615
4126 4099 -0.7256385998107853
4104 4100 -0.0727256080813014
4127 4100 0.8006530961027862
4132 4100 0.9492782372508928
4116 4101 -0.5966063417462690
4125 4101 0.7225257118442334
4716 4101 -0.4248481704153569
4121 4102 -0.9761345255897702
4107 4103 0.3481246375927001
4122 4103 -0.7071443830683309
4135 4103 0.9200415051728874
4126 4104 0.0126041444135869
4132 4104 -0.2622455519272439
4120 4105 -0.2210455641346477
4128 4105 0.3288369396038697
4116 4106 0.6894436475722525
4123 4106 0.4859462263863032
4142 4106 0.7341227454451125
4121 4107 -0.7407757805108799
4135 4107 0.3268837549974060
4148 4107 0.8383129367961668
4123 4108 0.2306283761101109
4129 4108 0.0657673879207739
4149 4108 -0.8524735251930295
4199 4109 -0.7313760795922727
4248 4109 0.4223456526383251
4118 4110 0.5615710928678244
4134 4110 -0.1112399670400097
4150 4110 0.0348216193121127
4225 4111 0.1267433698538163
4298 4111 0.5215918454542681
4343 4111 -0.4568926053651540
4140 4112 0.2071291238135931
4187 4112 0.9894405957213050
4209 4112 -0.5603503524887845
4124 4113 -0.6630146183660390
4134 4113 -0.0180364391003144
4151 4113 -0.2070680867946409
4129 4114 -0.1479842524491104
4137 4114 0.0104678487502670
4155 4114 -0.9064912869655446
4117 4115 0.4725791192358164
4120 4115 -0.4604327524643697
4146 4115 0.4598223822748497
4147 4115 -0.8649250770592365
4125 4116 0.4017761772515029
4142 4116 0.9219946897793512
4152 4116 0.8062685018463698
4122 4117 0.6033204138309884
4147 4117 0.5098117007965330
4154 4117 0.9549546800134281
4126 4118 -0.0471510971404157
4150 4118 0.4774010437330241
4160 4118 -0.2068239387188330
4127 4119 -0.1553086947233497
4167 4119 0.6922513504440444
4174 4119 -0.8536942655720694
4128 4120 -0.2146977141636403
4146 4120 -0.1091036713766900
4153 4120 0.4273506881923888
4148 4121 0.4959562974944303
4135 4122 -0.4554887539292581
4154 4122 0.7709280678731651
4161 4122 0.5682241279335918
4142 4123 -0.0312204351939451
4149 4123 0.7249061555833614
4165 4123 0.5783562730796228
4141 4124 0.6672261726737265
4151 4124 0.4087954344309823
4163 4124 -0.7089144566179388
4716 4124 0.9276100955229347
4141 4125 0.3545945616016113
4152 4125 0.5045014801477097
4164 4125 -0.5591906491286965
4716 4125 -0.5623035370952483
4132 4126 -0.8623615222632527
4160 4126 -0.3588671529282510
4168 4126 0.2963042085024568
4132 4127 -0.0928067873165075
4171 4127 -0.8745689260536516
4174 4127 -0.0233466597491379
4139 4128 0.9277932065797907
4153 4128 -0.5067598498489334
4157 4128 0.7423627430036317
4149 4129 -0.4480422376171148
4155 4129 0.2720114749595630
4173 4129 -0.7931455427716910
4156 4130 0.4912564470351268
4194 4130 -0.7507248146000549
4215 4130 -0.4924771874141667
4298 4131 -0.9628894924771874
4380 4131 0.8315988647114474
4432 4131 -0.5892818994720298
4168 4132 -0.5509506515701773
4171 4132 0.0171819208349864
4225 4133 -0.7684865871150853
4229 4133 0.9290139469588305
4299 4133 0.5247657704397717
4150 4134 0.5433210242011781
4151 4134 0.4599444563127537
4178 4134 0.6239509262367626
4148 4135 -0.1028168584246345
4161 4135 -0.7385784478286080
4172 4135 -0.8220770897549363
4139 4136 -0.2838526566362499
4143 4136 -0.7079989013336588
4182 4136 -0.1683095797601245
4192 4136 0.8943449201940976
4155 4137 -0.7886288033692435
4159 4137 0.0956755272072511
4175 4137 -0.1152684102908414
4143 4138 0.3469038972136600
4169 4138 -0.9932248908963286
4186 4138 -0.7146519363994263
4227 4138 -0.5178685872981963
4157 4139 -0.6285287026581622
4182 4139 0.5331888790551469
4189 4139 0.7535935544907986
4144 4140 -0.6071047090060122
4209 4140 -0.6776024658955657
4213 4140 -0.2558977019562365
4163 4141 -0.4106265449995422
4164 4141 0.4988250373851741
4170 4141 0.1058687093722344
4716 4141 0.2659688100833155
4152 4142 -0.1201513718070010
4165 4142 0.6416516617328409
4177 4142 0.8890957365642262
4186 4143 -0.4800866725669118
4192 4143 -0.4073915829950865
4167 4144 0.2237311929685355
4213 4144 0.5477156895657216
4228 4144 -0.3703421124912259
4199 4145 -0.8961149937437055
4241 4145 0.8755455183568834
4296 4145 0.9145481734672078
4147 4146 -0.0736411633655812
4153 4146 0.9328592791528061
4176 4146 0.5013275551622058
4180 4146 0.8905606250190741
4154 4147 0.8639484847560046
4176 4147 -0.7542039246803186
4179 4147 -0.9829096346934416
4172 4148 0.4826502273628956
4165 4149 0.1572008423108615
4173 4149 0.6925565355388044
4191 4149 0.0920743430890836
4160 4150 0.8291573839533677
4178 4150 0.9547715689565721
4196 4150 -0.8632770775475326
4163 4151 -0.7939390240180669
4178 4151 -0.7239295632801295
4190 4151 0.8597979674672689
4164 4152 -0.1560411389507737
4177 4152 -0.6630756553849910
4185 4152 -0.4327829828791162
4157 4153 -0.3890194402905363
4180 4153 -0.3110751670888394
4184 4153 0.5881832331308938
4161 4154 0.2092043824579608
4179 4154 0.2362437818536942
4183 4154 0.9446394238105411
4173 4155 -0.9287697988830226
4175 4155 -0.9244972075563830
4198 4155 -0.5089571825312051
4187 4156 -0.7836237678151798
4215 4156 -0.6458021790215767
4262 4156 -0.6890774254585406
4184 4157 0.3953062532425917
4189 4157 -0.9174779503769036
4308 4158 -0.2111575670644246
4434 4158 0.5994140446180609
4456 4158 0.6793725394451735
4175 4159 0.0049745170445876
4181 4159 -0.9705801568651387
4197 4159 0.8574785607470932
4168 4160 -0.0462965788750878
4196 4160 0.0715659047212134
4201 4160 -0.9442121646778772
4172 4161 0.4164860988189336
4183 4161 -0.5872066408276619
4195 4161 0.1329691457869198
4308 4162 -0.9879146702475051
4328 4162 -0.2449720755638295
4421 4162 0.8877529221472824
4170 4163 -0.1033051545762504
4190 4163 -0.8249458296456801
4193 4163 0.8449659718619342
4170 4164 -0.9423810541093173
4185 4164 0.5408795434430982
4188 4164 -0.6368907742545854
4177 4165 -0.8270210882900479
4191 4165 -0.3650318918424024
4204 4165 -0.5906247138889736
4329 4166 -0.8998992889187292
4481 4166 0.5009613330484939
4496 4166 -0.6644795068208869
4174 4167 -0.6476943266090884
4228 4167 -0.1553697317423017
4234 4167 -0.5737174596392712
4171 4168 0.4457838679158910
4201 4168 0.2728659932248909
4206 4168 0.5991088595233010
4227 4169 -0.1935178685872982
4229 4169 -0.1992553483687857
4292 4169 -0.5560167241431928
4188 4170 -0.7907040620136112
4193 4170 0.1085543382061220
4174 4171 0.9846797082430494
4206 4171 0.1573839533677175
4221 4171 0.6688741721854305
4195 4172 -0.2526017029328288
4191 4173 -0.4338206122013001
4198 4173 -0.7338785973693045
4217 4173 0.7393108920560321
4221 4174 -0.5253761406292916
4234 4174 0.1820429090243232
4197 4175 -0.8143864253669850
4198 4175 0.1992553483687858
4220 4175 -0.1190527054658650
4179 4176 -0.7199011200292977
4180 4176 0.9127780999176001
4202 4176 0.0354319895016328
4203 4176 -0.9262062440870388
4185 4177 0.3358561967833491
4204 4177 -0.3719901120029298
4211 4177 0.8868984038819545
4190 4178 -0.4061098055970946
4196 4178 -0.6470229194006165
4222 4178 -0.5581530198065127
4183 4179 -0.9438459425641652
4202 4179 -0.3678395947141941
4205 4179 -0.5370342112491227
4184 4180 0.8480178228095341
4203 4180 0.3993346964934232
4207 4180 0.6100344859157079
4197 4181 0.4336375011444442
4200 4181 -0.5538804284798731
4212 4181 0.4067812128055666
4189 4182 0.1855830561235390
4192 4182 -0.0990936002685628
4232 4182 -0.5027924436170537
4236 4182 -0.2108523819696646
4195 4183 0.7481002227851192
4205 4183 0.1358989226966154
4214 4183 0.8727988525040438
4189 4184 -0.1217993713187048
4207 4184 0.4628131962034974
4223 4184 -0.8408764915921506
4188 4185 0.9611804559465316
4211 4185 -0.8420361949522386
4218 4185 0.9296853541673025
4192 4186 0.0154118472853786
4227 4186 0.0940885647144993
4233 4186 -0.7637256996368298
4209 4187 0.5176854762413403
4262 4187 -0.9790643024994660
4288 4187 0.0541093173009430
4193 4188 -0.4292428357799005
4218 4188 -0.5630359813226722
4717 4188 0.7959532456434828
4223 4189 0.2277596362193670
4232 4189 -0.7391888180181280
4193 4190 -0.3874324777977843
4216 4190 0.8947721793267618
4222 4190 0.9647206030457471
4204 4191 -0.7806939909054842
4217 4191 -0.5793939024018067
4718 4191 -0.1539048432874538
4233 4192 0.7072054200872830
4236 4192 -0.9654530472731712
4216 4193 0.3508713034455397
4717 4193 -0.5840937528611103
4208 4194 0.4510940885647146
4215 4194 -0.1629993591113010
4281 4194 -0.3426923429059725
4214 4195 0.9057588427381207
4201 4196 0.1017181920834986
4222 4196 -0.5178075502792443
4253 4196 0.0596636860255746
4259 4196 0.2981353190710165
4212 4197 0.2863551744132817
4220 4197 -0.6376232184820093
4238 4197 0.5579699087496566
4217 4198 0.0627155369731742
4220 4198 0.1869258705404828
4239 4198 -0.8403271584215827
4248 4199 -0.5770134586626789
4296 4199 0.4348582415234841
4330 4199 0.9538560136722922
4212 4200 0.8533890804773094
4219 4200 -0.5748161259804071
4231 4200 -0.0207220679342021
4206 4201 -0.7349162266914884
4244 4201 0.2930692464980011
4253 4201 0.3641773735770746
4203 4202 0.2513199255348368
4205 4202 0.5922727134006776
4224 4202 -0.3486129337443159
4226 4202 0.9614856410412915
4207 4203 0.3686941129795220
4224 4203 0.7355265968810083
4230 4203 -0.9323709830011903
4211 4204 -0.8210394604327524
4247 4204 0.3055818353831599
4718 4204 -0.8087099826044496
4214 4205 0.7954649494918669
4226 4205 -0.9736320078127384
4235 4205 0.7219153416547135
4221 4206 0.9144260994293039
4244 4206 0.1669057283242286
4254 4206 0.9182714316232796
4223 4207 0.1404156620990631
4230 4207 0.0367137668996247
4243 4207 0.6859035004730369
4241 4208 -0.3547776726584674
4281 4208 -0.7161168248542742
4320 4208 0.1058687093722344
4213 4209 -0.4380932035279397
4288 4209 -0.9792474135563219
4719 4209 -0.6152226325266275
4535 4210 0.4057435834833827
4560 4210 0.9989623706778161
4588 4210 -0.7339396343882565
4218 4211 0.2804345835749382
4247 4211 0.9216895046845912
4255 4211 -0.4501785332804346
4231 4212 0.1960814233832819
4238 4212 -0.8946501052888577
4256 4212 -0.4876552629169592
4228 4213 0.8503982665486618
4719 4213 0.2681051057466353
4720 4213 -0.6055177465132603
4235 4214 -0.1482284005249184
4262 4215 0.0436719870601521
4281 4215 0.5572374645222327
4312 4215 -0.5918454542680136
4222 4216 -0.2973418378246406
4240 4216 -0.7902768028809473
4242 4216 -0.2809228797265542
4717 4216 -0.5070039979247414
4239 4217 0.0848109378337962
4258 4217 0.1106295968504898
4718 4217 -0.9962157048249763
4249 4218 -0.7099520859401227
4255 4218 0.9002044740134891
4717 4218 -0.4354686117130039
4231 4219 -0.6166875209814753
4237 4219 0.6032593768120365
4246 4219 -0.4221015045625172
4238 4220 -0.2382580034791101
4239 4220 -0.1456038087099826
4264 4220 0.7403485213782159
4234 4221 0.3009430219428084
4254 4221 0.8340403454695273
4273 4221 0.9796746726889858
4242 4222 0.1393169957579272
4259 4222 0.3774834437086092
4232 4223 -0.0093081453901791
4243 4223 0.7297891170995208
4270 4223 -0.9077730643635364
4226 4224 -0.6807763908810693
4230 4224 0.5334330271309549
4245 4224 0.6887722403637806
4250 4224 -0.6208990752891629
4299 4225 -0.8106021301919615
4343 4225 -0.9373149815363018
4359 4225 -0.3147373882259591
4235 4226 -0.3753471480452895
4245 4226 -0.2173833429975280
4251 4226 0.1879634998626667
4233 4227 0.9116183965575122
4292 4227 0.1903439436017944
4295 4227 -0.8007751701406903
4234 4228 -0.9459822382274850
4303 4228 -0.4058656575212867
4720 4228 0.4136173589281900
4292 4229 -0.6227912228766748
4299 4229 0.9970091860713524
4325 4229 -0.7232581560716574
4243 4230 0.0075991088595233
4250 4230 -0.8574175237281412
4257 4230 0.6406750694296091
4246 4231 -0.2201300088503677
4256 4231 -0.5663930173650319
4268 4231 0.3431196020386365
4236 4232 -0.2521134067812129
4270 4232 0.8983733634449294
4283 4232 -0.9415265358439894
4236 4233 -0.3746147038178655
4287 4233 0.1374858851893674
4295 4233 0.8993499557481612
4273 4234 -0.0903653065584277
4303 4234 -0.5803094576860865
4251 4235 0.9804071169164097
4283 4236 -0.1158787804803614
4287 4236 -0.1594592120120853
4246 4237 0.6942655720694602
4252 4237 0.7874080629902036
4261 4237 -0.9246803186132390
4256 4238 -0.0815759758293405
4264 4238 -0.9590441602832118
4280 4238 -0.5995971556749169
4258 4239 0.0928067873165075
4264 4239 0.8475905636768699
4282 4239 0.6568498794518876
4242 4240 0.3003936887722403
4249 4240 -0.7203894161809137
4277 4240 0.2399670400097660
4717 4240 -0.2191534165471358
4296 4241 0.5441145054475540
4320 4241 -0.8577227088229011
4349 4241 0.5462508011108738
4259 4242 0.1520126956999419
4277 4242 0.6424451429792168
4290 4242 -0.0343333231604969
4257 4243 0.4592730491042818
4270 4243 0.0483108005005035
4285 4243 -0.3078402050843837
4253 4244 -0.3326822717978454
4254 4244 -0.3972594378490555
4297 4244 -0.5295876949369793
4250 4245 0.0747398297067172
4251 4245 0.9514755699331645
4260 4245 -0.6821802423169652
4263 4245 -0.9671010467848751
4261 4246 -0.9664296395764030
4268 4246 -0.1727652821436201
4278 4246 -0.6406750694296091
4255 4247 -0.8755455183568834
4279 4247 -0.5571764275032807
4291 4247 0.5521103549302653
4718 4247 -0.6847437971129491
4328 4248 0.9002044740134891
4330 4248 -0.9200415051728874
4381 4248 -0.9361552781762139
4255 4249 0.5608386486404005
4277 4249 -0.3312173833429976
4293 4249 0.7153233436078983
4717 4249 -0.0368968779564806
4257 4250 -0.4393749809259315
4260 4250 0.2366100039674062
4266 4250 0.3295693838312936
4263 4251 -0.8906826990569781
4261 4252 0.3310342722861415
4265 4252 0.7707449568163092
4275 4252 -0.2265999328592792
4259 4253 0.8927579577013458
4297 4253 0.8744468520157476
4306 4253 0.7451704458754234
4273 4254 -0.8190862758262887
4297 4254 0.2439954832605975
4307 4254 -0.6003295999023408
4291 4255 -0.4696493423261208
4293 4255 -0.5505233924375134
4268 4256 0.4451124607074191
4280 4256 -0.8604693746757408
4294 4256 -0.8093813898129215
4266 4257 0.0977507858516191
4285 4257 0.8037659840693381
4286 4257 -0.4213690603350932
4279 4258 0.0509353923154394
4282 4258 0.8165837580492570
4305 4258 -0.7471846675008393
4718 4258 0.9036225470748009
4290 4259 0.5950193792535172
4306 4259 0.0221869563890500
4263 4260 -0.0613727225562304
4266 4260 -0.5112155522324290
4269 4260 0.2591937009796441
4271 4260 0.7271645252845851
4275 4261 0.8599200415051729
4278 4261 -0.7703176976836451
4284 4261 0.6824243903927731
4288 4262 -0.9607531968138676
4312 4262 -0.3801080355235450
4336 4262 0.5362407300027467
4271 4263 -0.0242622150334177
4280 4264 -0.3975646229438154
4282 4264 0.3545335245826593
4302 4264 -0.2013306070131535
4272 4265 -0.4252143925290689
4275 4265 -0.7090365306558428
4289 4265 -0.1016571550645466
4269 4266 -0.8609576708273567
4286 4266 0.2353282265694143
4530 4267 -0.5289162877285074
4552 4267 0.2519302957243568
4585 4267 -0.7399212622455520
4278 4268 0.7371745963927121
4294 4268 0.1402325510422071
4300 4268 -0.5881221961119418
4271 4269 -0.7960142826624348
4276 4269 -0.1431012909329509
4286 4269 0.2587054048280282
4283 4270 -0.3728446302682576
4285 4270 -0.1656849879451887
4314 4270 -0.8272041993469039
4276 4271 -0.4151432844019898
4274 4272 -0.8566850795007172
4289 4272 0.8527787102877895
4303 4273 -0.7356486709189123
4307 4273 0.3265785699026460
4323 4273 0.4977874080629903
4276 4274 0.1636707663197730
4289 4274 0.8687704092532120
4309 4274 -0.0780968657490768
4284 4275 -0.5717032380138554
4289 4275 -0.6013061922055727
4301 4275 -0.4433423871578112
4286 4276 -0.7391277809991760
4309 4276 -0.5430158391064180
4290 4277 0.4142277291177099
4293 4277 -0.5092623676259651
4319 4277 -0.3386028626361889
4284 4278 0.2130497146519363
4300 4278 0.5735343485824151
4304 4278 0.8279976805932798
4291 4279 0.9116183965575122
4305 4279 0.5560167241431928
4315 4279 -0.3727835932493057
4718 4279 0.3291421246986297
4294 4280 -0.3092440565202795
4302 4280 0.5622425000762963
4310 4280 0.0034485915707876
4312 4281 -0.2617572557756279
4320 4281 0.6819360942411572
4356 4281 -0.5626697592089602
4302 4282 -0.6791894283883175
4305 4282 -0.5064546647541734
4316 4282 -0.3115634632404554
4287 4283 -0.5833002716147344
4314 4283 0.9363994262520219
4321 4283 0.3333536790063174
4301 4284 -0.9332255012665182
4304 4284 0.7172154911954101
4286 4285 -0.6585589159825433
4314 4285 0.3586230048524430
4322 4285 0.7884456923123875
4309 4286 -0.3986022522659993
4322 4286 0.2178106021301920
4295 4287 0.1155125583666494
4321 4287 -0.5574205755790886
4326 4287 0.6185796685689871
4336 4288 -0.0343943601794489
4341 4288 -0.7407147434919279
4719 4288 0.4938810388500625
4301 4289 -0.9169896542252877
4309 4289 0.5178685872981963
4311 4289 -0.6364635151219215
4306 4290 0.1055024872585224
4319 4290 0.8539384136478774
4332 4290 0.2511368144779809
4293 4291 0.4358348338267160
4315 4291 -0.1583605456709495
4324 4291 -0.5220191045869320
4295 4292 0.8076113162633136
4325 4292 -0.2967925046540727
4344 4292 0.5612048707541124
4353 4292 -0.2419812616351817
4319 4293 0.6389660328989533
4324 4293 0.2294686727500228
4300 4294 0.8158513138218328
4310 4294 -0.1898556474501786
4313 4294 -0.9142429883724479
4326 4295 -0.0725424970244454
4344 4295 0.0635700552385021
4330 4296 0.6708883938108463
4349 4296 -0.1953489791558580
4376 4296 0.5275734733115636
4306 4297 0.0122989593188270
4307 4297 -0.4813684499649037
4334 4297 -0.6447645496993927
4340 4297 -0.9332255012665182
4343 4298 0.4039124729148229
4432 4298 -0.4297921689504685
4436 4298 -0.2399670400097659
4325 4299 -0.5411236915189062
4359 4299 0.5525376140629292
4364 4299 0.7158116397595142
4304 4300 0.8495437482833339
4313 4300 0.7097079378643147
4317 4300 0.9497665334025087
4304 4301 -0.0452589495529039
4311 4301 -0.7954039124729149
4318 4301 -0.6610003967406232
4310 4302 0.2475966673787653
4316 4302 -0.3052766502883999
4331 4302 -0.4905240028077029
4323 4303 0.5726187932981353
4348 4303 -0.0657673879207740
4720 4303 0.9765617847224342
4317 4304 -0.8729209265419478
4318 4304 -0.1344340342417676
4315 4305 0.0124210333567309
4316 4305 -0.3127231666005432
4333 4305 -0.2902615436262093
4332 4306 -0.6793725394451735
4340 4306 -0.0048524430066835
4323 4307 0.8242133854182561
4334 4307 0.6572771385845515
4421 4308 0.5635853144932401
4456 4308 0.5297097689748833
4472 4308 0.8719443342387159
4311 4309 0.2354503006073183
4322 4309 0.6376232184820094
4327 4309 -0.0363475447859126
4313 4310 -0.6445814386425367
4331 4310 -0.8328806421094394
4337 4310 0.4807580797753839
4318 4311 -0.8359935300759911
4327 4311 -0.3686330759605700
4335 4311 0.5085299233985412
4336 4312 0.5465559862056337
4356 4312 0.9037446211127049
4391 4312 -0.0199896237067781
4317 4313 0.6229132969145788
4337 4313 -0.8671224097415082
4338 4313 -0.8740195928830836
4321 4314 -0.9394512771996215
4322 4314 -0.9353617969298380
4342 4314 -0.0202948088015381
4347 4314 0.4011047700430310
4324 4315 0.7924741355632190
4333 4315 0.1861323892941069
4351 4315 0.6990874965666676
4331 4316 0.8861659596545304
4333 4316 0.7244788964506974
4350 4316 0.2793969542527543
4318 4317 0.5993530075991089
4338 4317 -0.8978850672933134
4339 4317 0.9550157170323801
4335 4318 -0.9343241676076540
4339 4318 -0.5330057679982909
4324 4319 -0.1609241004669332
4332 4319 -0.3343913083285013
4360 4319 -0.6548966948454238
4361 4319 -0.1324808496353038
4349 4320 -0.4968108157597583
4356 4320 0.3301797540208136
4387 4320 -0.3810235908078250
4326 4321 0.5284279915768915
4342 4321 0.2176274910733360
4345 4321 0.6623432111575671
4327 4322 -0.5027314065981017
4346 4322 -0.6332285531174657
4347 4322 0.9895626697592090
4334 4323 0.3638721884823146
4348 4323 0.7037873470259712
4366 4323 -0.2757957701345867
4351 4324 -0.7434003723258156
4361 4324 -0.2637104403820918
4353 4325 -0.5088351084933012
4364 4325 0.3704031495101778
4375 4325 -0.8756675923947874
4344 4326 0.2181157872249520
4345 4326 -0.7205725272377697
4371 4326 0.8399609363078708
4335 4327 -0.3926206244087039
4346 4327 0.9104586931974243
4352 4327 -0.6715598010193182
4381 4328 0.6625263222144231
4421 4328 -0.8121890926847133
4443 4328 0.1535996581926939
4496 4329 0.2590105899227881
4557 4329 0.0509964293343914
4376 4330 0.0014954069643238
4381 4330 0.2165898617511521
4399 4330 0.2336802270577105
4337 4331 0.6085695974608600
4350 4331 -0.0336008789330730
4357 4331 0.1628772850733970
4340 4332 0.6102786339915158
4360 4332 -0.3820001831110569
4367 4332 0.1648304696798608
4350 4333 0.9536729026154362
4351 4333 0.8807336649678030
4370 4333 0.4756920072023683
4340 4334 -0.2084109012115848
4366 4334 -0.1471297341837825
4373 4334 -0.2925809503463851
4339 4335 0.8322092349009675
4352 4335 -0.0182805871761224
4355 4335 0.1949827570421461
4341 4336 -0.1303445539719840
4383 4336 -0.9970702230903042
4391 4336 0.8290963469344157
4338 4337 -0.4219183935056612
4357 4337 -0.0670491653187658
4362 4337 0.2104861598559526
4339 4338 0.9091769157994323
4358 4338 0.5464339121677297
4362 4338 0.4531693472090823
4355 4339 -0.7784966582232123
4358 4339 -0.3820612201300089
4367 4340 0.8228095339823602
4373 4340 -0.4712973418378247
4354 4341 0.9409772026734213
4383 4341 -0.3595385601367229
4719 4341 -0.8456984160893581
4345 4342 -0.4871669667653432
4347 4342 -0.4747154148991364
4365 4342 -0.1403546250801111
4372 4342 -0.1655629139072847
4359 4343 -0.3019806512649922
4427 4343 -0.4217963194677572
4436 4343 0.0198675496688743
4353 4344 -0.0372020630512406
4371 4344 0.7863093966490677
4382 4344 -0.0091250343333231
4365 4345 -0.5431379131443220
4371 4345 0.5061494796594135
4347 4346 -0.0433057649464400
4352 4346 -0.0113834040345470
4368 4346 -0.7939390240180669
4369 4346 -0.7778252510147404
4369 4347 0.3431806390575884
4372 4347 -0.0519119846186712
4366 4348 -0.1970580156865138
4377 4348 0.5096285897396771
4397 4348 -0.2650532547990356
4720 4348 0.5455793939024018
4376 4349 0.0867030854213080
4387 4349 0.2463148899807734
4404 4349 0.3121127964110233
4357 4350 0.8003479110080263
4370 4350 -0.6792504654072695
4379 4350 0.6779686880092777
4361 4351 0.2288583025605029
4370 4351 0.5748771629993592
4389 4351 -0.0579546494949187
4355 4352 -0.5793939024018067
4368 4352 0.8570513016144292
4374 4352 0.0946989349040193
4375 4353 -0.7483443708609272
4382 4353 -0.3616138187810908
4394 4353 0.5019989623706778
4377 4354 0.0500808740501113
4383 4354 -0.6405529953917051
4408 4354 -0.5400860621967223
4719 4354 0.4039124729148229
4720 4354 0.8424634540849025
4358 4355 -0.3051545762504959
4374 4355 -0.3047883541367840
4378 4355 -0.1632435071871090
4387 4356 0.5377056184575946
4391 4356 -0.6030152287362285
4412 4356 -0.0838343455305642
4362 4357 0.1172215948973052
4379 4357 0.0892056031983397
4388 4357 -0.1039765617847225
4362 4358 -0.0375072481460006
4378 4358 0.3363444929349650
4385 4358 -0.6074098941007722
4364 4359 0.9980468153935362
4413 4359 0.9362773522141179
4427 4359 0.6265144810327463
4361 4360 0.7354045228431043
4367 4360 0.7869197668385877
4392 4360 0.7469405194250314
4396 4360 -0.2241584521011993
4389 4361 -0.7967467268898587
4396 4361 0.6547746208075198
4385 4362 0.2699362163151953
4388 4362 -0.9970702230903042
4562 4363 0.6064333017975403
4597 4363 -0.2260505996887112
4615 4363 -0.8193304239020966
4375 4364 0.7042146061586352
4402 4364 0.4872280037842951
4413 4364 0.3226722006897182
4371 4365 -0.4725791192358165
4372 4365 -0.0139469588305308
4384 4365 0.7731864375743889
4393 4365 -0.2225104525894955
4373 4366 0.1042207098605303
4397 4366 -0.2045655690176091
4400 4366 -0.3638111514633625
4373 4367 -0.4156926175725577
4392 4367 -0.3124790185247353
4398 4367 -0.5400860621967223
4369 4368 -0.8779869991149633
4374 4368 0.5209204382457961
4386 4368 0.1988891262550736
4372 4369 -0.5494857631153294
4386 4369 0.1114230780968657
4390 4369 0.0635700552385021
4379 4370 -0.1449324015015107
4389 4370 0.1801507614368114
4401 4370 -0.8244575334940641
4382 4371 0.0696737571337016
4393 4371 -0.6299935911130101
4407 4371 -0.3512375255592517
4384 4372 0.8891567735831782
4390 4372 0.0896938993499556
4398 4373 -0.7308877834406567
4400 4373 -0.2499160740989410
4378 4374 0.1625110629596851
4386 4374 0.6202276680806909
4395 4374 -0.6202276680806910
4394 4375 0.0493484298226874
4402 4375 0.1557969908749657
4399 4376 -0.3888363292336803
4404 4376 0.5604113895077365
4416 4376 0.8477126377147741
4397 4377 0.3381756035035248
4408 4377 0.5392925809503464
4423 4377 -0.2703634754478591
4720 4377 0.3429975280007325
4385 4378 0.2532731101413006
4395 4378 -0.6398205511642812
4406 4378 0.2594378490554521
4388 4379 -0.2981963560899685
4401 4379 -0.4450514236884671
4409 4379 0.6526993621631521
4432 4380 0.7934507278664511
4492 4380 0.8534501174962614
4505 4380 -0.1256447035126804
4399 4381 0.2661519211401715
4443 4381 0.5540635395367290
4444 4381 0.8190862758262887
4394 4382 -0.9177220984527116
4407 4382 0.7847224341563157
4411 4382 0.2001098666341137
4391 4383 -0.6108890041810358
4408 4383 -0.4920499282815027
4426 4383 -0.8797570726645710
4390 4384 0.2975859859004486
4393 4384 -0.0399487289040803
4405 4384 0.6774193548387097
4388 4385 0.5469222083193457
4406 4385 0.4666585283974731
4410 4385 0.3445844904934843
4390 4386 0.1343729972228156
4395 4386 0.4892422254097111
4403 4386 -0.7336954863124485
4404 4387 -0.6338389233069857
4412 4387 0.9052095095675528
4428 4387 0.3771782586138492
4409 4388 -0.1193578905606251
4410 4388 0.0520950956755273
4396 4389 -0.8292794579912717
4401 4389 0.8795129245887632
4419 4389 -0.3325601977599414
4403 4390 -0.7640308847315898
4405 4390 0.7086703085421309
4412 4391 0.8290353099154637
4426 4391 0.6334116641743217
4442 4391 0.3833429975280007
4396 4392 -0.3336588641010773
4398 4392 -0.8487502670369579
4414 4392 0.8969695120090335
4422 4392 -0.5478988006225776
4405 4393 0.2295907467879268
4407 4393 0.1103244117557298
4420 4393 0.2024903103732414
4402 4394 0.6008178960539567
4411 4394 0.7476729636524553
4417 4394 -0.8174382763145848
4403 4395 -0.4527420880764184
4406 4395 -0.4427320169682912
4418 4395 0.8782921842097231
4419 4396 -0.1272316660054323
4422 4396 -0.0153508102664266
4400 4397 -0.5405743583483382
4423 4397 -0.6859645374919889
4424 4397 0.7834406567583239
4400 4398 0.6652729880672628
4414 4398 0.9815057832575458
4415 4398 0.6542863246559039
4416 4399 -0.7493820001831111
4444 4399 -0.8212225714896084
4415 4400 -0.4419385357219153
4424 4400 0.9829096346934416
4409 4401 0.8595538193914609
4419 4401 0.2598040711691640
4430 4401 -0.4819788201544236
4413 4402 0.7165440839869381
4417 4402 -0.8501541184728538
4438 4402 -0.0815149388103885
4405 4403 -0.0588091677602466
4418 4403 0.2847071749015777
4429 4403 0.8268379772331920
4416 4404 -0.9400006103701896
4428 4404 0.0503250221259193
4439 4404 -0.7962584307382428
4420 4405 0.7872249519333476
4429 4405 -0.3450727866451002
4410 4406 0.9504989776299326
4418 4406 0.1088595233008820
4431 4406 0.2752464369640186
4411 4407 -0.4775231177709280
4420 4407 -0.4714194158757287
4435 4407 0.3046052430799280
4423 4408 0.4792931913205358
4426 4408 0.7898495437482833
4445 4408 -0.6739402447584459
4410 4409 0.3985412152470473
4430 4409 0.8828699606311228
4433 4409 0.0896328623310036
4431 4410 0.1960814233832819
4433 4410 0.5782341990417188
4417 4411 0.6816919461653492
4435 4411 -0.4418164616840113
4441 4411 -0.4413892025513474
4428 4412 0.0963469344157231
4442 4412 0.5800042725913266
4450 4412 0.6971953489791558
4427 4413 -0.9340800195318461
4438 4413 0.5243995483260597
4460 4413 -0.7220984527115696
4415 4414 0.1608630634479813
4422 4414 -0.5096285897396771
4440 4414 0.3392742698446607
4424 4415 -0.0368968779564806
4440 4415 -0.4680013428144170
4452 4415 -0.3524582659382915
4439 4416 -0.5962401196325571
4444 4416 -0.8814661091952269
4461 4416 0.1478621784112064
4438 4417 0.1670278023621325
4441 4417 0.9044160283211768
4429 4418 0.9591662343211158
4431 4418 -0.9598376415295877
4449 4418 -0.0767540513321330
4422 4419 -0.6915189062166204
4430 4419 -0.1897946104312266
4448 4419 -0.9493392742698447
4451 4419 -0.0608233893856625
4429 4420 -0.0961638233588672
4435 4420 -0.2607196264534440
4447 4420 -0.8154850917081210
4443 4421 0.5749382000183112
4472 4421 0.4822229682302317
4477 4421 -0.2452162236396375
4440 4422 0.2653584398937956
4448 4422 0.8140812402722251
4424 4423 0.7303994872890407
4445 4423 -0.1167332987456893
4457 4423 -0.0473952452162236
4452 4424 -0.5397198400830103
4457 4424 -0.1095309305093539
4434 4425 0.4382763145847957
4459 4425 0.1853389080477310
4523 4425 -0.9432966093935973
4442 4426 0.2524796288949247
4445 4426 -0.2068239387188330
4462 4426 -0.8857997375408185
4436 4427 0.3398846400341808
4460 4427 -0.9589220862453078
4478 4427 0.9701528977324747
4439 4428 0.5840937528611103
4450 4428 0.0420239875484480
4455 4428 0.2598651081881160
4447 4429 0.3579515976439711
4449 4429 -0.7702566606646931
4465 4429 -0.1468855861079745
4433 4430 -0.9455549790948210
4451 4430 0.8719443342387159
4453 4430 0.2480849635303812
4433 4431 -0.6441541795098727
4449 4431 0.1586046937467573
4454 4431 0.8668782616657003
4436 4432 -0.0925016022217475
4493 4432 0.7454145939512313
4505 4432 0.9838251899777215
4453 4433 -0.8831751457258827
4454 4433 -0.1405377361369671
4456 4434 0.1470686971648305
4523 4434 0.9167455061494796
4532 4434 -0.8259834589678641
4441 4435 -0.6882839442121647
4447 4435 -0.6558122501297037
4458 4435 -0.6144291512802516
4478 4436 -0.5814691610461745
4493 4436 0.1290017395550402
4544 4437 0.7286294137394329
4594 4437 0.2591326639606921
4606 4437 0.1123996704000976
4441 4438 0.9204687643055514
4460 4438 -0.7140415662099063
4464 4438 -0.8604693746757408
4455 4439 -0.2299569689016389
4461 4439 -0.8211004974517044
4448 4440 0.4294259468367565
4452 4440 -0.8868984038819544
4463 4440 0.1575670644245735
4458 4441 -0.4669026764732811
4464 4441 -0.5074922940763573
4450 4442 -0.4804528946806238
4462 4442 0.2332529679250466
4466 4442 -0.8245796075319681
4444 4443 -0.3042390209662160
4476 4443 -0.6960356456190679
4477 4443 0.3422040467543566
4461 4444 0.5285500656147955
4476 4444 0.3975035859248635
4483 4444 -0.4867397076326793
4457 4445 0.9774773400067140
4462 4445 0.2120120853297525
4473 4445 0.4429761650440993
4506 4446 0.4996185186315500
4552 4446 -0.5803094576860865
4571 4446 0.3728446302682578
4458 4447 0.4232612079226050
4465 4447 0.3930478835413678
4475 4447 0.5687734611041597
4451 4448 -0.5583971678823206
4463 4448 0.6569719534897915
4467 4448 0.4065981017487106
4454 4449 -0.7213660084841456
4465 4449 0.3769341105380413
4468 4449 0.7071443830683311
4455 4450 -0.4642780846583453
4466 4450 0.5092013306070131
4471 4450 -0.5398419141209143
4453 4451 -0.7542649616992706
4467 4451 0.2148808252204963
4470 4451 0.6066774498733483
4457 4452 -0.2954496902371289
4463 4452 0.0782189397869808
4474 4452 -0.5066377758110294
4454 4453 0.0255439924314096
4469 4453 -0.0611285744804224
4470 4453 -0.8591265602587970
4468 4454 -0.7064729758598590
4469 4454 0.8044984282967620
4461 4455 -0.3698538163396100
4471 4455 0.2836085085604418
4480 4455 0.3133335367900631
4472 4456 -0.8915982543412579
4522 4456 0.5071260719626454
4532 4456 0.6495254371776482
4473 4457 -0.8641926328318125
4474 4457 0.1499374370555742
4488 4457 -0.9536118655964843
4464 4458 -0.5345927304910428
4475 4458 -0.8913541062654500
4479 4458 -0.1984008301034578
4481 4459 0.8854335154271065
4523 4459 -0.9448835718863491
4545 4459 0.5547349467452010
4464 4460 0.2123783074434644
4478 4460 -0.7776421399578844
4486 4460 -0.1130100405896176
4495 4460 0.8784142582476271
4480 4461 -0.2593157750175481
4483 4461 0.2682882168034912
4466 4462 0.4700155644398327
4473 4462 0.1279030732139042
4482 4462 0.5162205877864925
4467 4463 -0.1889400921658986
4474 4463 -0.0904873805963317
4484 4463 0.5778679769280068
4479 4464 -0.0573442793053988
4486 4464 -0.0433057649464400
4468 4465 -0.0639362773522141
4475 4465 -0.1066011535996582
4485 4465 -0.5446638386181220
4471 4466 0.1073335978270822
4482 4466 0.2187261574144719
4491 4466 0.4390087588122196
4470 4467 0.8444166386913663
4484 4467 -0.7586596270638142
4490 4467 -0.2231208227790155
4469 4468 0.2946562089907530
4485 4468 -0.5428937650685141
4487 4468 -0.4442579424420912
4470 4469 0.3013702810754724
4487 4469 0.5407574694051942
4489 4469 0.5920896023438216
4489 4470 0.5350810266426587
4490 4470 0.1990112002929776
4480 4471 0.3759575182348094
4491 4471 0.3964659566026796
4494 4471 -0.4918057802056948
4477 4472 -0.8283028656880398
4514 4472 0.6290780358287302
4522 4472 -0.4196600238044373
4482 4473 -0.2440565202795495
4488 4473 0.1437116611224707
4498 4473 -0.7722098452711570
4484 4474 -0.7402874843592639
4488 4474 0.2320932645649587
4497 4474 0.3483077486495560
4479 4475 -0.8123722037415693
4485 4475 -0.7590868861964781
4499 4475 -0.0400708029419843
4477 4476 0.3882869960631123
4483 4476 0.6821802423169652
4502 4476 0.0589922788171027
4507 4476 -0.8323313089388714
4502 4477 -0.9197363200781274
4514 4477 -0.2419202246162298
4493 4478 -0.9178441724906156
4495 4478 0.2237922299874875
4516 4478 0.8978850672933134
4486 4479 -0.7423627430036317
4499 4479 -0.0039979247413556
4503 4479 0.4363841669972839
4483 4480 -0.1758781701101718
4494 4480 0.5100558488723410
4508 4480 -0.0221259193700980
4496 4481 -0.2222052674947356
4545 4481 0.4269844660786768
4554 4481 -0.6449476607562487
4491 4482 -0.1236915189062167
4498 4482 -0.4019592883083590
4510 4482 -0.0299386577959533
4507 4483 -0.9384136478774376
4508 4483 -0.2937406537064730
4490 4484 -0.6114383373516037
4497 4484 0.3708304086428418
4500 4484 -0.2974639118625446
4487 4485 0.7732474745933409
4499 4485 -0.3406170842616046
4511 4485 -0.1811273537400433
4495 4486 0.5498519852290413
4503 4486 0.7392498550370801
4512 4486 -0.0079653309732353
4489 4487 0.8671834467604602
4504 4487 -0.9490340891750847
4511 4487 0.9420758690145574
4497 4488 0.3311563463240454
4498 4488 0.8082216864528335
4515 4488 0.9508041627246926
4490 4489 0.2814111758781701
4501 4489 0.5760979033783991
4504 4489 -0.8522293771172216
4500 4490 -0.8807947019867550
4501 4490 0.9838862269966735
4494 4491 0.5364238410596027
4510 4491 -0.0107730338450270
4513 4491 -0.3500778221991638
4505 4492 0.5590685750907927
4509 4492 -0.6867580187383648
4550 4492 0.1398663289284952
4559 4492 0.7895443586535233
4505 4493 -0.7401654103213600
4516 4493 0.1682485427411726
4536 4493 0.7532273323770866
4508 4494 -0.7375408185064242
4513 4494 -0.6407971434675130
4512 4495 -0.0560014648884548
4516 4495 -0.6821192052980132
4518 4495 -0.4473708304086429
4554 4496 -0.4446852015747551
4557 4496 -0.9026459547715689
4500 4497 -0.1919919431134983
4515 4497 0.7039094210638752
4517 4497 0.8189031647694327
4510 4498 -0.5910519730216377
4515 4498 -0.1950437940610981
4520 4498 0.2034669026764733
4503 4499 0.9937131870479445
4511 4499 -0.5697500534073916
4519 4499 0.4049501022370068
4501 4500 -0.4904019287697989
4517 4500 0.4639728995635852
4521 4500 0.7322305978576007
4504 4501 -0.2757347331156347
4521 4501 0.7860652485732598
4526 4501 0.2004760887478256
4507 4502 -0.9833979308450576
4514 4502 -0.1852778710287789
4524 4502 -0.5939207129123814
4512 4503 0.4981536301767022
4519 4503 -0.8463087862788782
4525 4503 -0.1988891262550737
4511 4504 -0.2109744560075686
4526 4504 -0.2825098422193060
4536 4505 0.2075563829462570
4550 4505 -0.9453108310190130
4509 4506 -0.8693807794427320
4570 4506 -0.6575823236793115
4571 4506 -0.4875331888790552
4508 4507 -0.7860652485732597
4524 4507 0.5910519730216377
4529 4507 0.6670430616168705
4513 4508 -0.1369365520187994
4529 4508 0.8651081881160925
4533 4508 0.5018768883327738
4559 4509 -0.5762199774163030
4570 4509 0.8792077394940032
4513 4510 -0.3038727988525041
4520 4510 -0.8442945646534623
4528 4510 -0.3344523453474533
4519 4511 0.6100955229346599
4526 4511 -0.0646076845606861
4534 4511 -0.2601092562639241
4518 4512 -0.7857600634784997
4525 4512 0.4388256477553636
4528 4513 -0.1122775963621937
4533 4513 0.9774163029877621
4522 4514 -0.0118717001861629
4524 4514 -0.6498916592913602
4542 4514 -0.6187627796258430
4517 4515 0.0370189519943847
4520 4515 -0.4796594134342479
4527 4515 0.6238898892178106
4518 4516 -0.0633869441816461
4536 4516 -0.7238685262611775
4543 4516 0.9822382274849697
4521 4517 -0.9827875606555376
4527 4517 -0.5290383617664114
4531 4517 -0.6225470748008668
4525 4518 0.0216986602374341
4540 4518 -0.5030365916928617
4543 4518 0.3504440443128758
4525 4519 0.4432203131199073
4534 4519 -0.2681661427655874
4537 4519 -0.4142887661366619
4527 4520 0.6019165623950926
4528 4520 -0.3917050691244239
4539 4520 0.0602130191961425
4526 4521 0.3835871456038087
4531 4521 -0.9020355845820490
4538 4521 0.7363200781273842
4532 4522 0.9719229712820825
4542 4522 0.3280434583574938
4556 4522 0.5270851771599474
4532 4523 0.7592699972533341
4545 4523 -0.3205969420453505
4569 4523 0.7549974059266946
4529 4524 0.9608142338328196
4542 4524 0.2249519333475754
4546 4524 -0.7484054078798792
4537 4525 -0.6775414288766137
4540 4525 -0.1681264687032685
4534 4526 0.6133304849391157
4538 4526 0.9132663960692160
4547 4526 0.3609424115726187
4531 4527 -0.8653523361919004
4539 4527 -0.0144352549821467
4541 4527 -0.6507461775566881
4533 4528 0.2110354930265206
4539 4528 -0.3394573809015168
4548 4528 -0.4730674153874325
4533 4529 -0.6749168370616779
4546 4529 0.6127201147495955
4575 4530 -0.9186986907559435
4585 4530 0.5471663563951537
4608 4530 0.9358500930814539
4538 4531 0.2073122348704490
4541 4531 -0.3073519089327678
4556 4532 0.5003509628589740
4569 4532 -0.2029786065248573
4546 4533 -0.7843562120426039
4548 4533 0.6299935911130101
4555 4533 -0.4136173589281900
4537 4534 -0.5107882930997650
4547 4534 -0.6457411420026247
4549 4534 0.3698538163396099
4557 4535 0.4979094821008943
4588 4535 0.5688344981231117
4600 4535 0.0522171697134313
4543 4536 0.3287148655659657
4550 4536 0.8729819635608997
4567 4536 -0.5417950987273781
4540 4537 -0.9681386761070589
4549 4537 -0.6279183324686421
4541 4538 -0.9816278572954497
4547 4538 -0.4731284524063845
4553 4538 0.3146153141880550
4541 4539 0.0461745048371838
4548 4539 0.4647663808099611
4551 4539 -0.3233436078981903
4543 4540 -0.2847071749015778
4549 4540 0.3447065645313883
4558 4540 -0.0846278267769403
4551 4541 0.7434614093447676
4553 4541 0.8875698110904264
4546 4542 -0.1767326883754997
4556 4542 0.1534165471358380
4565 4542 -0.9724723044526505
4558 4543 -0.0177922910245064
4567 4543 -0.1256447035126804
4606 4544 0.4674520096438490
4620 4544 -0.7343668935209204
4629 4544 -0.0185857722708823
4554 4545 0.9744254890591144
4569 4545 0.1596423230689412
4580 4545 0.3567918942838832
4555 4546 0.7712332529679251
4565 4546 0.7162388988921782
4549 4547 -0.3015533921323282
4553 4547 0.1544541764580218
4566 4547 0.0147404400769067
4568 4547 -0.5607165746024965
4551 4548 -0.9218726157414472
4555 4548 0.6377452925199134
4563 4548 0.8890346995452743
4558 4549 -0.7299722281563769
4568 4549 -0.0519730216376232
4559 4550 -0.2261116367076632
4567 4550 -0.2529679250465408
4578 4550 -0.6154057435834834
4553 4551 -0.9265114291817987
4563 4551 -0.6151615955076755
4564 4551 -0.2312997833185827
4571 4552 -0.6929837946714683
4585 4552 -0.3082064271980957
4601 4552 -0.6700338755455184
4564 4553 -0.3381756035035249
4566 4553 -0.9448835718863491
4557 4554 0.3249305703909422
4580 4554 -0.6820581682790612
4591 4554 -0.5226905117954039
4563 4555 -0.0538041322061831
4565 4555 -0.3883480330820642
4572 4555 0.6598406933805352
4565 4556 0.5992919705801569
4569 4556 0.8757896664326914
4579 4556 0.7220374156926175
4591 4557 -0.7237464522232735
4600 4557 -0.0260933256019776
4567 4558 -0.1189306314279610
4568 4558 -0.0838953825495162
4576 4558 0.2707907345805232
4570 4559 -0.3610034485915707
4578 4559 -0.1971800897244178
4586 4559 0.8098696859645376
4588 4560 -0.6175420392468032
4602 4560 -0.3830378124332408
4610 4560 -0.1437726981414228
4595 4561 0.9105807672353283
4637 4561 -0.3706472975859859
4643 4561 -0.7670216986602374
4602 4562 -0.0743125705740532
4615 4562 -0.0157780693990905
4623 4562 0.4566484572893459
4564 4563 0.9226050599688711
4572 4563 -0.6062501907406842
4573 4563 0.8176824243903928
4566 4564 -0.2996002075258645
4573 4564 -0.4116031373027741
4574 4564 -0.6815698721274452
4572 4565 -0.0627765739921262
4579 4565 -0.3193762016663106
4582 4565 -0.4279610583819087
4568 4566 -0.2299569689016389
4574 4566 0.8476516006958219
4577 4566 -0.2640156254768518
4576 4567 0.3002105777153843
4578 4567 -0.8588213751640370
4584 4567 -0.6477553636280404
4576 4568 0.5117648854029970
4577 4568 0.6699118015076144
4579 4569 -0.7581102938932462
4580 4569 -0.4814905240028077
4590 4569 0.3147984252449110
4571 4570 -0.7658619953001495
4586 4570 0.9920041505172887
4593 4570 -0.1503036591692861
4593 4571 0.8471633045442060
4601 4571 0.2513809625537888
4573 4572 0.5237891781365398
4581 4572 0.2266609698782311
4582 4572 0.6309091463972900
4574 4573 0.6597186193426312
4581 4573 0.5079805902279733
4577 4574 -0.8182317575609608
4581 4574 -0.5624866481521043
4583 4574 0.0406201361125522
4594 4575 0.5137180700094608
4608 4575 0.0667439802240060
4622 4575 0.0328684347056489
4577 4576 0.6325571459089938
4584 4576 -0.7827692495498519
4587 4576 -0.3218176824243903
4583 4577 0.5516830957976013
4587 4577 -0.5417950987273781
4584 4578 0.2701803643910032
4586 4578 -0.0976897488326670
4598 4578 -0.1870479445783868
4582 4579 -0.3724173711355937
4590 4579 0.6404309213538011
4592 4579 -0.0585039826654866
4590 4580 0.8900112918485061
4591 4580 0.8791467024750512
4604 4580 -0.7613452558977020
4582 4581 -0.3140659810174871
4583 4581 -0.7540208136234626
4589 4581 0.4217963194677572
4589 4582 0.6420789208655049
4592 4582 -0.2080446790978728
4587 4583 0.7490768150883511
4589 4583 0.1404156620990631
4596 4583 -0.2717673268837550
4587 4584 -0.9702139347514267
4598 4584 -0.1213721121860408
4599 4584 -0.7731864375743889
4601 4585 0.0321359904782250
4608 4585 0.4635456404309213
4619 4585 -0.5646229438154240
4593 4586 0.2992339854121524
4598 4586 -0.3621021149327067
4607 4586 -0.9744254890591143
4596 4587 0.0682088686788538
4599 4587 0.0721762749107333
4600 4588 -0.5820184942167425
4610 4588 0.0484328745384075
4617 4588 0.9295022431104465
4592 4589 0.6403698843348491
4596 4589 -0.5665761284218879
4603 4589 -0.6847437971129491
4592 4590 -0.2279427472762230
4604 4590 0.4375438703573717
4605 4590 0.3055207983642079
4600 4591 0.1932126834925383
4604 4591 -0.1999267555772576
4613 4591 0.9342631305887021
4603 4592 -0.6262703329569383
4605 4592 0.4109927671132543
4601 4593 -0.4137394329660939
4607 4593 0.1359599597155674
4614 4593 0.4507889034699546
4606 4594 0.0434278389843441
4622 4594 -0.6319467757194739
4634 4594 0.9448225348673971
4597 4595 0.9876705221716970
4630 4595 -0.7343668935209204
4637 4595 0.0350657673879207
4599 4596 -0.5533921323282571
4603 4596 -0.5382549516281625
4609 4596 -0.5607165746024965
4615 4597 0.1205786309396648
4630 4597 -0.8129825739310892
4631 4597 0.8001037629322183
4599 4598 0.0931119724112675
4607 4598 -0.8904385509811701
4611 4598 0.4975432599871823
4609 4599 0.6497695852534562
4611 4599 -0.6390881069368572
4613 4600 0.3751640369884335
4617 4600 0.9352397228919340
4625 4600 0.3091219824823757
4614 4601 0.4386425366985076
4619 4601 0.0571001312295907
4610 4602 -0.1016571550645466
4623 4602 -0.8689535203100680
4624 4602 -0.3763847773674733
4605 4603 -0.8063905758842738
4609 4603 -0.5198828089236122
4612 4603 0.2121341593676564
4605 4604 0.4988860744041261
4613 4604 -0.5798821985534226
4616 4604 0.6232795190282907
4612 4605 0.1784417249061556
4616 4605 -0.1767326883754997
4629 4606 -0.4536576433606982
4634 4606 0.6375621814630574
4611 4607 0.8825647755363628
4614 4607 -0.3074129459517198
4621 4607 -0.6746726889858699
4619 4608 -0.8562578203680532
4622 4608 -0.1774040955839716
4636 4608 -0.4685506759849849
4611 4609 -0.2739036225470748
4612 4609 0.5054170354319896
4618 4609 -0.9035615100558488
4617 4610 0.4807580797753839
4624 4610 0.0227362895596179
4628 4610 -0.1885128330332346
4618 4611 -0.2959990234076968
4621 4611 -0.2589495529038361
4616 4612 -0.9877315591906491
4618 4612 0.4722128971221045
4626 4612 -0.9909665211951049
4616 4613 -0.5632190923795282
4625 4613 0.6745506149479659
4627 4613 0.4910733359782709
4619 4614 0.1742912076174199
4621 4614 -0.4387035737174596
4633 4614 -0.4150822473830378
4623 4615 -0.5256202887050996
4631 4615 -0.6188238166447950
4640 4615 -0.4328440198980682
4626 4616 0.3946348460341198
4627 4616 -0.5572985015411847
4625 4617 -0.3522751548814356
4628 4617 0.1632435071871090
4638 4617 0.6888332773827326
4621 4618 -0.4957121494186224
4626 4618 -0.9439680166020692
4635 4618 -0.1186254463332010
4633 4619 -0.4628742332224494
4636 4619 -0.5446028015991700
4629 4620 0.2030396435438093
4632 4620 -0.0250556962797936
4654 4620 -0.9526963103122044
4633 4621 0.3680837427900021
4635 4621 0.6857814264351330
4634 4622 0.2123783074434644
4636 4622 -0.7642139957884457
4649 4622 -0.7706228827784051
4624 4623 -0.5652943510238959
4639 4623 -0.8731040375988037
4640 4623 -0.4731284524063845
4628 4624 -0.3066805017242958
4639 4624 0.7075716422009950
4627 4625 -0.7130039368877223
4638 4625 -0.8068788720358897
4642 4625 0.0090639973143711
4627 4626 0.5547349467452010
4635 4626 -0.8525955992309335
4641 4626 0.0505691702017272
4641 4627 0.1870479445783868
4642 4627 -0.4290597247230445
4638 4628 0.0461745048371838
4639 4628 -0.2809228797265542
4645 4628 -0.5340433973204748
4634 4629 0.7440107425153355
4654 4629 -0.0923795281838435
4656 4629 0.7626270332956939
4631 4630 0.1433454390087587
4637 4630 0.2137821588793603
4648 4630 0.2153080843531603
4640 4631 0.0204168828394422
4648 4631 0.8313547166356394
4655 4631 -0.2460097048860134
4646 4632 -0.1829584643086032
4654 4632 -0.5578478347117527
4664 4632 -0.7986999114963225
4635 4633 0.7891170995208594
4636 4633 0.1244239631336406
4647 4633 0.7396771141697440
4650 4633 -0.7209997863704336
4649 4634 0.7584765160069582
4656 4634 -0.7310098574785607
4641 4635 -0.8326364940336314
4647 4635 -0.6470839564195685
4649 4636 -0.3585619678334910
4650 4636 -0.2213507492294077
4643 4637 0.7443159276100955
4648 4637 -0.4415723136082034
4658 4637 -0.5454573198644979
4642 4638 -0.6644795068208869
4645 4638 0.2297128208258308
4651 4638 -0.7994323557237465
4640 4639 0.5337992492446668
4645 4639 -0.8214667195654164
4652 4639 0.1656239509262367
4652 4640 0.8771324808496352
4655 4640 -0.5850703451643422
4642 4641 -0.2869045075838496
4647 4641 0.2976470229194006
4653 4641 -0.5348368785668508
4651 4642 0.1236915189062167
4653 4642 -0.1097750785851619
4644 4643 -0.3121738334299753
4658 4643 -0.9663075655384991
4660 4643 -0.3111362041077914
4657 4644 -0.0823084200567644
4660 4644 0.8310495315408795
4674 4644 -0.2560808130130925
4651 4645 -0.3098544267097995
4652 4645 -0.1341898861659596
4661 4645 0.0874355296487319
4664 4646 -0.1991943113498337
4676 4646 0.6541642506179999
4650 4647 -0.2698141422772912
4653 4647 -0.2550431836909085
4659 4647 0.5178685872981963
4655 4648 -0.8899502548295541
4658 4648 -0.4861293374431592
4665 4648 0.0218207342753380
4650 4649 -0.4424878688924833
4656 4649 0.1183812982573931
4662 4649 0.8917813653981139
4666 4649 0.3240150151066621
4659 4650 0.4100161748100222
4662 4650 -0.9153416547135838
4653 4651 -0.9806512649922178
4661 4651 0.0685750907925657
4663 4651 -0.8273262733848079
4655 4652 -0.3292031617175817
4661 4652 0.0489211706900234
4669 4652 0.3861507003997924
4659 4653 0.6931058687093723
4663 4653 -0.3835871456038087
4656 4654 0.9144260994293039
4664 4654 -0.9854731894894253
4667 4654 -0.8627277443769646
4665 4655 -0.7165440839869381
4669 4655 0.9492172002319406
4666 4656 -0.3032013916440321
4667 4656 -0.9529404583880123
4668 4657 0.7352824488052003
4674 4657 -0.1019623401593066
4683 4657 0.3949400311288798
4660 4658 -0.0525223548081911
4665 4658 0.1633655812250130
4671 4658 -0.1139255958738975
4662 4659 -0.3669240394299143
4663 4659 0.5675527207251199
4670 4659 -0.5248268074587237
4671 4660 -0.0928067873165075
4674 4660 -0.7179479354228340
4663 4661 -0.2626728110599078
4669 4661 -0.1465804010132146
4672 4661 0.3946958830530718
4666 4662 -0.9024018066957610
4670 4662 0.0229194006164739
4673 4662 -0.8989226966154973
4670 4663 0.4364452040162359
4672 4663 -0.6749778740806299
4667 4664 -0.8381908627582628
4676 4664 -0.4156926175725577
4682 4664 -0.8031556138798182
4669 4665 0.6829126865443891
4671 4665 -0.6374401074251533
4677 4665 0.5850703451643422
4667 4666 0.1086153752250740
4673 4666 0.0381176183355205
4675 4666 -0.4708090456862087
4675 4667 -0.1237525559251687
4682 4667 -0.6036255989257484
4678 4668 -0.9150975066377758
4683 4668 0.4746543778801844
4688 4668 0.3329264198736535
4672 4669 -0.5050508133182776
4677 4669 0.3402508621478928
4681 4669 0.1844233527634511
4672 4670 0.3900570696127201
4673 4670 0.9246192815942869
4679 4670 -0.2322153386028626
4674 4671 -0.8061464278084658
4677 4671 0.1611682485427413
4684 4671 -0.8143864253669850
4679 4672 0.3439130832850124
4681 4672 -0.8586993011261330
4675 4673 0.0291451765495774
4679 4673 0.2355113376262703
4680 4673 -0.1227759636219367
4683 4674 0.5592516861476486
4684 4674 -0.4770958586382641
4680 4675 -0.8901333658864101
4682 4675 -0.6056398205511643
4682 4676 0.9660634174626912
4687 4676 -0.7091586046937468
4681 4677 -0.7488937040314951
4684 4677 -0.5948362681966612
4686 4677 -0.6782128360850856
4688 4678 -0.0149235511337626
4692 4678 -0.8937955870235298
4680 4679 0.3585619678334910
4681 4679 -0.0907315286721396
4685 4679 0.8680379650257881
4682 4680 -0.4433423871578112
4685 4680 0.6033204138309884
4689 4680 -0.2971587267677847
4685 4681 -0.0455030976287119
4686 4681 0.7430951872310556
4687 4682 0.1641590624713889
4689 4682 0.2894680623798334
4684 4683 0.5007782219916379
4688 4683 -0.1537217322305978
4690 4683 -0.3523972289193396
4686 4684 0.4012878810998870
4690 4684 -0.3452558977019562
4686 4685 0.3888363292336803
4689 4685 0.5887325663014618
4691 4685 0.1254615924558244
4690 4686 0.0777916806543169
4691 4686 0.6177861873226111
4689 4687 0.5519882808923613
4690 4688 0.8515579699087497
4692 4688 0.3525803399761955
4693 4688 -0.4676961577196570
4691 4689 -0.7013458662678915
4691 4690 0.0194402905362101
4693 4690 0.9880367442854090
4693 4691 0.1184423352763451
4693 4692 -0.6672872096926786
4700 4699 0.7315591906491288
4701 4700 -0.1654408398693807
4713 4712 0.3529465620899075
4720 4719 -0.8614459669789727
